BEGIN IONS
PEPMASS=981.54
CHARGE=0
MSLEVEL=2
SOURCE_INSTRUMENT=LC-ESI-qTof
FILENAME=130618_Ger_Jenia_WT-3-Des-MCLR_MH981.4-qb.1.1..mgf
SEQ=*..*
IONMODE=Positive
ORGANISM=GNPS-LIBRARY
NAME=3-Des-Microcystein_LR M+H
PI=Gerwick
DATACOLLECTOR=Jenia
SMILES=CC(C)CC1NC(=O)C(C)NC(=O)C(=C)N(C)C(=O)CCC(NC(=O)C(C)C(NC(=O)C(CCCNC(N)=N)NC(=O)C(C)C(NC1=O)C(O)=O)\C=C\C(\C)=C\C(C)C(O)Cc1ccccc1)C(O)=O
INCHI=N/A
INCHIAUX=N/A
PUBMED=N/A
SUBMITUSER=mwang87
LIBRARYQUALITY=1
SPECTRUMID=CCMSLIB00000001547
SCANS=1
289.286377	8068.0
295.545288	22507.0
298.489624	3925.0
317.324951	18742.0
319.655945	8604.0
324.482422	8041.0
325.316284	9738.0
339.789429	16145.0
343.947021	18094.0
347.020508	13981.0
347.913391	6765.0
361.147705	11763.0
361.84436	24296.0
364.232727	2346.0
364.858154	10782.0
365.845886	10242.0
368.22168	12761.0
368.965698	19147.0
375.069519	15644.0
375.751953	25393.0
382.750549	12765.0
384.197083	17912.0
390.574219	7993.0
394.049194	16135.0
397.106262	13986.0
404.420715	12326.0
411.092712	2348.0
413.784546	8715.0
427.667358	68137.0
436.192749	14879.0
443.266113	44427.0
446.267273	23472.0
447.747498	29292.0
455.25	70939.0
456.107544	105392.0
456.822144	3.0
457.543213	12862.0
464.285461	8617.0
469.872314	87594.0
471.062195	31482.0
475.257324	15449.0
476.143616	23143.0
476.975159	28430.0
478.891113	27890.0
479.975952	33235.0
483.242432	13564.0
487.210388	32885.0
488.160156	20786.0
491.191956	55073.0
494.279602	7435.0
495.653992	32208.0
498.412964	11684.0
503.028198	30643.0
503.699951	2.0
504.344543	36421.0
505.154541	9667.0
510.176514	38891.0
512.168701	10175.0
513.265381	16524.0
514.957397	11384.0
515.922852	78764.0
520.973389	28857.0
521.82373	5810.0
523.168945	58926.0
529.036865	20722.0
530.991211	31845.0
532.376709	3005.0
534.575195	12906.0
538.003174	220949.0
539.217773	272296.0
540.672852	43876.0
548.061401	13655.0
554.117432	76225.0
556.030396	214421.0
557.288818	52970.0
557.996094	6202.0
559.942261	18112.0
561.328735	14656.0
564.123047	25971.0
564.94873	34630.0
566.439941	35564.0
571.33374	61305.0
572.047363	17235.0
575.219238	42127.0
575.888916	6.0
577.102905	29550.0
579.645874	7151.0
580.942627	17609.0
582.110107	102075.0
583.458984	10113.0
585.237061	36774.0
598.172485	26085.0
599.352783	764523.0
600.382812	114267.0
601.06665	4.0
602.267578	27144.0
609.302002	10247.0
613.415771	8621.0
622.208984	23787.0
623.023193	63940.0
623.991455	19154.0
625.216187	23050.0
638.299561	12481.0
640.265625	17392.0
641.235107	65873.0
646.095947	8409.0
649.2771	5446.0
651.526611	17521.0
657.128906	12911.0
658.094971	14824.0
659.420898	41969.0
663.387695	18284.0
668.33252	65700.0
669.357178	5671.0
680.219727	44374.0
681.987793	24446.0
685.957764	19166.0
691.648682	29177.0
693.22583	33545.0
694.307861	22539.0
696.332397	121211.0
697.127808	9503.0
709.464478	20171.0
710.79541	22346.0
711.744873	32675.0
714.071777	50487.0
715.578979	54567.0
716.216553	8.0
723.267822	14415.0
724.081909	88510.0
725.488892	8470.0
728.352051	21518.0
735.806396	52022.0
738.34668	2697.0
744.365234	16205.0
747.456055	19268.0
753.27124	14114.0
761.609131	12373.0
764.462158	19876.0
765.280029	18361.0
769.275635	41999.0
770.328613	16548.0
771.386353	13776.0
787.432617	33003.0
796.139526	9637.0
797.232788	11322.0
806.556885	18639.0
808.442383	6355.0
811.637329	14687.0
812.300049	9904.0
813.149292	15959.0
817.219238	7640.0
820.274048	6246.0
821.288208	15591.0
823.361328	13693.0
824.618286	6895.0
828.517456	32132.0
830.409302	102583.0
831.306763	65294.0
832.105469	9727.0
833.18457	4115.0
835.212891	7606.0
836.078247	8740.0
838.518677	26160.0
839.455811	72006.0
845.612915	21577.0
847.433594	196462.0
848.125854	39637.0
851.380859	246170.0
852.370605	276882.0
853.270508	44216.0
865.5979	44697.0
866.295654	111012.0
867.19043	4120.0
868.372192	78023.0
869.331177	8584.0
871.557007	5374.0
877.137451	30131.0
880.216553	5692.0
883.442261	49241.0
884.216553	8.0
888.167114	41037.0
889.282959	24795.0
892.127808	14925.0
893.467896	23506.0
895.607422	13123.0
899.010132	28633.0
901.351196	13472.0
902.325562	3774.0
909.424438	244136.0
910.515381	43770.0
911.526367	15208.0
914.30896	6532.0
915.217773	28455.0
918.666138	5610.0
919.39624	85829.0
920.06665	3.0
921.123901	16163.0
922.205688	37863.0
925.063721	43395.0
931.132812	61732.0
932.351929	136657.0
933.524048	25202.0
935.493286	33896.0
936.552002	103130.0
937.588623	67605.0
938.471069	35379.0
939.61792	77289.0
946.257812	38584.0
949.370239	85420.0
950.284546	5976.0
951.551758	29995.0
953.396606	545281.0
954.491577	123937.0
963.686768	261578.0
964.524658	318164.0
965.192139	124405.0
982.221924	27147.0
END IONS

BEGIN IONS
PEPMASS=940.25
CHARGE=0
MSLEVEL=2
SOURCE_INSTRUMENT=LC-ESI-qTof
FILENAME=20111105_Anada_Ger_HoiamideB_MH940_qb.1.1..mgf
SEQ=*..*
IONMODE=Positive
ORGANISM=GNPS-LIBRARY
NAME=Hoiamide B M+H
PI=Gerwick
DATACOLLECTOR=Amanda
SMILES=CCC[C@@H](C)[C@@H]([C@H](C)[C@@H]1[C@H]([C@H](Cc2nc(cs2)C3=N[C@](CS3)(C4=N[C@](CS4)(C(=O)N[C@H]([C@H]([C@H](C(=O)O[C@H](C(=O)N[C@H](C(=O)O1)[C@@H](C)O)[C@@H](C)CC)C)O)[C@@H](C)CC)C)C)OC)C)O
INCHI=InChI=1S/C45H73N5O10S3/c1-14-17-24(6)34(52)26(8)37-25(7)30(58-13)18-31-46-29(19-61-31)39-49-45(12,21-62-39)43-50-44(11,20-63-43)42(57)48-32(22(4)15-2)35(53)27(9)40(55)59-36(23(5)16-3)38(54)47-33(28(10)51)41(56)60-37/h19,22-28,30,32-37,51-53H,14-18,20-21H2,1-13H3,(H,47,54)(H,48,57)/t22-,23-,24+,25-,26-,27+,28+,30-,32-,33-,34-,35-,36-,37-,44+,45+/m0/s1
INCHIAUX=N/A
PUBMED=N/A
SUBMITUSER=mwang87
LIBRARYQUALITY=1
SPECTRUMID=CCMSLIB00000001548
SCANS=1
278.049927	35793.0
278.957642	47593.0
281.258667	95495.0
291.996094	115278.0
293.827637	91752.0
299.065979	129040.0
309.152832	62974.0
324.236206	31157.0
334.968811	115627.0
341.283569	30547.0
343.978516	94124.0
353.147217	205611.0
353.84436	1.0
359.101166	581387.0
359.888855	18.0
368.931641	40369.0
375.024811	191523.0
375.664062	39.0
377.287628	934209.0
378.192047	295658.0
380.225586	99848.0
381.088074	28994.0
383.194763	126064.0
384.326294	119935.0
390.16333	132876.0
391.216492	152650.0
397.480957	49394.0
405.885986	15096.0
408.151367	50942.0
408.941162	1521917.0
410.069397	235028.0
412.908936	19523.0
415.317749	40832.0
416.189331	116396.0
421.346222	822444.0
422.236237	406319.0
425.736572	33271.0
430.427429	115251.0
431.030762	152986.0
436.663208	30867.0
453.213257	215667.0
453.853271	2.0
456.716797	125621.0
457.249573	718325.0
458.258514	121013.0
459.323029	42422.0
462.352295	53209.0
468.064392	56113.0
471.292297	101158.0
472.837769	17471.0
475.22522	1066899.0
476.323944	931888.0
477.293152	314415.0
481.310425	20995.0
486.095825	35999.0
488.752777	97793.0
490.151245	189397.0
491.134399	38134.0
492.823486	167781.0
493.837646	123040.0
499.340332	68929.0
500.92627	35192.0
502.819702	346672.0
503.328186	1789291.0
503.844055	115544.0
504.448425	209601.0
505.521667	210506.0
506.153992	23586.0
507.28186	1756109.0
508.139343	920658.0
508.715088	5.0
509.322998	67825.0
510.159729	125144.0
511.108826	44963.0
513.214233	63849.0
514.097351	157893.0
515.079712	76460.0
518.323853	32014.0
519.041016	240930.0
521.166443	2474045.0
522.086304	485376.0
522.963379	290176.0
529.374146	106411.0
530.899231	722904.0
532.089783	189952.0
532.834473	71377.0
534.093506	79577.0
535.231201	533187.0
536.079834	205958.0
536.935913	19616.0
537.806885	427771.0
538.545166	14.0
539.760132	185155.0
543.283936	115082.0
545.483398	53069.0
553.24353	10619710.0
554.189453	1265687.0
555.107849	885736.0
556.199341	35655.0
557.188904	144709.0
558.325073	276628.0
559.441162	38371.0
563.392944	369187.0
564.342773	53377.0
565.162598	153259.0
567.527832	90530.0
569.09668	13406.0
573.235718	244664.0
573.872803	48.0
575.213562	846336.0
576.479736	79230.0
582.099854	85856.0
583.982666	34163.0
584.817871	17642.0
585.449829	126403.0
587.480713	30454.0
589.125	202774.0
589.857056	3.0
591.335327	324628.0
593.54541	59873.0
599.153564	39495.0
601.312927	773465.0
602.344727	103997.0
605.229919	390697.0
606.044434	1.0
607.083252	438106.0
607.802979	32.0
611.162537	126605.0
613.219177	1278729.0
614.208252	134599.0
614.943481	32793.0
616.26123	35333.0
617.239929	1181920.0
617.832764	3566.0
619.109741	611095.0
620.09021	215720.0
623.606201	32893.0
625.371094	162473.0
629.113037	397263.0
631.285767	837261.0
632.427246	426749.0
633.305969	773961.0
634.005371	139725.0
635.159546	104212.0
638.429932	50215.0
639.142578	211014.0
644.970947	126358.0
645.833496	400437.0
646.540649	13.0
647.614746	28622.0
649.493652	92063.0
651.267822	2952105.0
652.501709	948097.0
653.303345	261489.0
655.203003	33201.0
656.197632	63099.0
657.307983	3027254.0
658.356934	577368.0
659.635254	85949.0
661.488525	480492.0
662.373413	76094.0
663.271667	5528330.0
664.294983	1893201.0
665.272827	48.0
671.457947	584357.0
672.555908	35863.0
675.252808	3062771.0
676.276123	1149021.0
677.002197	57.0
679.320496	347430.0
688.130615	336462.0
689.338928	5507539.0
690.380371	939865.0
691.865601	127803.0
693.103333	441499.0
694.241089	177434.0
694.866699	3.0
706.645874	764079.0
707.298584	11425631.0
708.41217	3282238.0
709.281738	37425.0
710.297302	104548.0
711.575684	59794.0
714.353027	293763.0
720.310608	463766.0
723.610229	67559.0
724.423279	333180.0
725.338684	2697145.0
726.246155	477936.0
727.232544	407357.0
727.836182	23.0
731.005493	58569.0
733.947266	42640.0
734.489502	322546.0
735.21875	30.0
736.155151	161121.0
738.186523	1302348.0
738.97168	187994.0
739.817383	181407.0
740.513184	61.0
743.460449	177286.0
744.158691	26051.0
746.365784	668916.0
746.917114	45488.0
749.86853	33868.0
752.247192	1273569.0
753.092773	124216.0
753.863403	42270.0
754.550781	53958.0
756.299866	83498.0
758.105103	72039.0
760.394287	285768.0
761.139648	92506.0
762.440063	487254.0
763.821289	118871.0
764.401733	78746.0
765.879333	244224.0
766.875977	103968.0
768.550537	359217.0
769.536011	71507.0
770.24707	6843020.0
771.345947	1834188.0
772.112915	291081.0
772.859253	98762.0
773.393433	15544.0
774.196289	89552.0
775.369934	162814.0
776.830322	39987.0
778.437683	568287.0
779.430786	387544.0
780.564697	96591.0
782.339478	146674.0
786.388916	33301.0
788.550964	179046.0
789.33606	752627.0
790.289795	2323301.0
791.421265	491574.0
792.208252	468317.0
792.876465	10.0
793.950195	158696.0
795.489502	38698.0
796.091187	954908.0
797.200439	337367.0
798.289185	46495.0
800.432495	111840.0
801.090576	18.0
802.506714	113841.0
803.42688	382726.0
804.150146	305130.0
805.09314	72883.0
805.733887	25871.0
806.318115	161990.0
807.514771	70266.0
808.27356	21070504.0
809.333984	4046391.0
810.207275	259344.0
811.469727	27873.0
812.310425	187082.0
813.238647	70162.0
814.210083	462427.0
814.969604	5.0
818.325684	249639.0
819.179932	5.0
821.257446	2401369.0
822.402405	1322524.0
823.065796	26639.0
826.38385	1256031.0
827.219849	5.0
828.190063	2491409.0
829.269775	415142.0
832.262146	456122.0
833.509155	211714.0
834.274414	8.0
836.505859	107931.0
837.125854	4.0
837.99231	18698.0
839.326721	2462282.0
840.278259	8756806.0
841.229004	1659474.0
842.093811	260534.0
843.241211	234347.0
844.313904	2187139.0
845.152466	83303.0
846.27002	2781280.0
847.444214	1204369.0
848.088745	3.0
850.265015	922613.0
851.186401	116222.0
854.273743	1016497.0
855.291382	102364.0
858.455566	702571.0
860.296204	2520372.0
861.256592	530700.0
862.471863	1859168.0
863.435181	549532.0
864.379272	443001.0
865.002441	70558.0
866.333496	12614.0
868.264954	134340.0
871.557007	123565.0
872.289917	18706856.0
873.345642	2718281.0
874.043213	315833.0
876.373779	5434008.0
876.880249	19.0
877.403809	1670336.0
878.322937	10828502.0
879.327148	2115364.0
880.158447	114122.0
886.277527	2620326.0
887.16687	545701.0
887.893188	5.0
890.246277	55866120.0
891.272888	13506386.0
892.020142	75.0
893.624634	44855.0
894.326416	18938176.0
895.376404	5114120.0
896.202576	979881.0
897.012695	226445.0
904.195679	46132128.0
905.224548	12148538.0
906.084473	13.0
906.811646	12834.0
908.183472	17888056.0
909.235107	4328052.0
910.25885	56715.0
912.229492	168909.0
913.382202	64191.0
921.45813	892847.0
922.178101	109387080.0
923.155762	23455760.0
924.007812	68.0
940.099915	1264261.0
940.88324	2.0
END IONS

BEGIN IONS
PEPMASS=456.1
CHARGE=0
MSLEVEL=2
SOURCE_INSTRUMENT=LC-ESI-qTof
FILENAME=20111105_Jenia_Ger_MalyngamideC_MH_456_qb.1.1..mgf
SEQ=*..*
IONMODE=Positive
ORGANISM=GNPS-LIBRARY
NAME=Malyngamide C M+H
PI=Gerwick
DATACOLLECTOR=Amanda
SMILES=CCCCCCC[C@@H](C/C=C/CCC(=O)NC/C(=C/Cl)/[C@@]12[C@@H](O1)[C@H](CCC2=O)O)OC
INCHI=InChI=1S/C24H38ClNO5/c1-3-4-5-6-8-11-19(30-2)12-9-7-10-13-22(29)26-17-18(16-25)24-21(28)15-14-20(27)23(24)31-24/h7,9,16,19-20,23,27H,3-6,8,10-15,17H2,1-2H3,(H,26,29)/b9-7+,18-16-/t19-,20-,23-,24+/m0/s1
INCHIAUX=N/A
PUBMED=N/A
SUBMITUSER=mwang87
LIBRARYQUALITY=1
SPECTRUMID=CCMSLIB00000001549
SCANS=1
128.838745	8064.0
132.075684	8080.0
132.830322	18139.0
134.038437	11099.0
135.861877	4449.0
136.808807	25689.0
138.058044	10764.0
138.973206	4246.0
139.9487	1724.0
144.946014	7320.0
145.902298	49972.0
146.937012	51801.0
148.894623	28649.0
149.97699	1863.0
153.859802	7103.0
154.713699	36921.0
155.846817	2060.0
156.714844	6284.0
158.752625	1735.0
160.830704	16155.0
163.185608	533.0
163.910172	252195.0
164.623047	32682.0
165.733948	3395.0
166.981857	13151.0
171.847717	104840.0
172.495239	1.0
173.275482	12953.0
173.914734	5425.0
174.843506	1678.0
179.897583	20765.0
181.835129	183621.0
182.753876	156636.0
183.335068	12.0
183.913422	5378.0
185.065643	3780.0
186.137329	811.0
189.110214	39074.0
197.980545	6792.0
199.184845	10571.0
199.844528	624963.0
200.777771	142047.0
201.483322	1.0
203.099976	3409.0
205.09613	13589.0
205.86319	3181.0
206.984756	46408.0
208.040466	3242.0
208.964996	22175.0
210.259705	710.0
212.964813	16141.0
214.151306	13266.0
215.761108	11654.0
216.936066	1618.0
217.831894	937927.0
218.579987	3.0
221.636169	2399.0
222.598358	9334.0
223.988632	80101.0
224.586639	1.0
229.886719	10375.0
234.017761	27179.0
236.033844	38385.0
237.818314	31662.0
238.861313	28934.0
239.690002	11188.0
240.222229	1.0
241.927307	30061.0
242.991882	2003.0
243.90564	10750.0
247.445831	15595.0
251.955292	27835.0
254.062531	4240.0
254.630402	1254.0
255.87674	2013.0
258.053741	23367.0
259.056335	17488.0
260.177734	7311.0
260.765381	7718.0
262.098389	21095.0
263.673523	10252.0
264.552368	37683.0
268.199219	16811.0
269.090881	5872.0
271.308411	435.0
272.420837	1091.0
272.947662	29580.0
274.890625	3256.0
275.762695	12200.0
277.944397	3182.0
281.043823	1494.0
282.318359	5854.0
283.845001	23247.0
284.954407	2428.0
285.89978	2482.0
287.046417	24986.0
288.275391	4782.0
289.689941	17680.0
290.959991	6664.0
292.850342	11947.0
295.933075	17736.0
297.365479	10209.0
297.999786	9928.0
299.985352	2090.0
307.71936	52460.0
309.054688	13865.0
310.058533	3309.0
310.919434	12360.0
312.388794	2471.0
313.061646	5753.0
313.898224	654448.0
314.618134	1.0
316.06897	2603.0
321.953339	36012.0
323.073242	30548.0
323.795776	461.0
324.946899	24349.0
325.870728	1667.0
328.325989	1378.0
334.002808	33185.0
335.118286	3659.0
339.90567	14517.0
341.105286	572.0
342.098663	28518.0
342.997925	1492.0
345.584991	5009.0
350.237061	1429.0
352.251495	70368.0
353.108459	16312.0
357.992676	5510.0
360.06662	6277.0
361.583008	13914.0
362.816467	8611.0
367.725464	1254.0
370.019318	577662.0
370.866577	7.0
372.178589	6989.0
378.005493	445431.0
378.671936	4.0
380.209106	22266.0
387.997772	262881.0
388.711029	3.0
395.914978	858.0
401.854828	51090.0
406.004456	627822.0
406.774811	11.0
409.659729	1702.0
419.272339	10655.0
420.101593	70422.0
423.253418	295910.0
423.916626	32604272.0
424.812042	25.0
426.196167	18399.0
437.281433	18805.0
438.103607	28144.0
439.510559	1335.0
455.885986	4412.0
END IONS

BEGIN IONS
PEPMASS=545.0
CHARGE=0
MSLEVEL=2
SOURCE_INSTRUMENT=LC-ESI-Ion Trap
FILENAME=20111105_Jenia_Ger_Scytonemin_MH_545_qb.1.1..mgf
SEQ=*..*
IONMODE=Positive
ORGANISM=GNPS-LIBRARY
NAME=Scytonemin M+H
PI=Gerwick
DATACOLLECTOR=Amanda
SMILES=OC1=CC=C(\C=C2\C(=O)C(C3=C4C5=C(C=CC=C5)N=C4\C(=C/C4=CC=C(O)C=C4)C3=O)=C3C4=C(C=CC=C4)N=C23)C=C1
INCHI=InChI=1S/C36H20N2O4/c39-21-13-9-19(10-14-21)17-25-33-29(23-5-1-3-7-27(23)37-33)31(35(25)41)32-30-24-6-2-4-8-28(24)38-34(30)26(36(32)42)18-20-11-15-22(40)16-12-20/h1-18,39-40H/b25-17+,26-18+
INCHIAUX=CGZKSPLDUIRCIO-RPCRKUJJSA-N
PUBMED=N/A
SUBMITUSER=mwang87
LIBRARYQUALITY=1
SPECTRUMID=CCMSLIB00000001550
SCANS=1
343.896484	142503.0
345.458496	67939.0
372.684021	175247.0
386.097473	65864.0
395.15564	104575.0
399.223022	60954.0
406.367249	31184.0
408.018677	100834.0
411.038452	32080.0
412.037964	57989.0
425.144653	113047.0
428.946472	18204.0
439.259216	94641.0
451.303467	109804.0
453.173279	83206.0
471.290649	97971.0
473.082581	77358.0
474.340637	39583.0
484.037598	69735.0
488.428955	406750.0
489.287537	7417608.0
490.31311	4128547.0
491.288513	3.0
498.630005	112346.0
499.849731	163597.0
500.469604	33473.0
501.284241	87997.0
502.14502	106179.0
504.172668	27900.0
516.481567	1003328.0
517.132935	12979350.0
518.111328	7024024.0
518.976562	67.0
528.132935	9615938.0
529.155762	4285929.0
530.238403	96747.0
544.155518	4675899.0
545.082642	43057184.0
546.063965	11037290.0
546.972168	9.0
END IONS

BEGIN IONS
PEPMASS=314.116
CHARGE=1
MSLEVEL=2
SOURCE_INSTRUMENT=LC-ESI-qTof
FILENAME=A1.mgf
SEQ=*..*
IONMODE=Positive
ORGANISM=GNPS-LIBRARY
NAME=Salinisporamide A M+H
PI=Fenical-Jensen-Moore
DATACOLLECTOR=Max
SMILES=N/A
INCHI=N/A
INCHIAUX=N/A
PUBMED=N/A
SUBMITUSER=mwang87
LIBRARYQUALITY=1
SPECTRUMID=CCMSLIB00000001551
SCANS=1
101.015465	34.201859
101.059807	14.90337
103.002441	17.01816
103.028542	58.15749
103.051033	46.279202
104.049545	74.360039
105.03553	33.939091
105.068886	131.880402
106.065529	1076.04895
106.163048	25.345711
107.070229	346.654602
108.044289	165.469803
108.079056	127.294701
109.052727	449.686615
109.151184	10.63889
109.783958	13.62424
110.060417	3147.275879
110.132996	36.797791
110.158386	67.473793
110.184387	26.193081
110.213326	18.34597
110.394592	10.17029
110.490852	11.54372
111.076462	539.782776
111.177116	12.9152
111.563881	10.31067
112.035728	21.437611
112.081123	47.559681
113.012817	13.57791
115.007751	13.53561
115.053963	159.350296
116.056465	41.231121
117.011398	30.76762
117.067688	102.842499
118.065544	137.627396
119.045944	18.95507
119.080719	49.256691
120.080437	130.773407
121.083122	48.16489
122.025009	16.321211
122.060623	1645.828003
122.164406	34.38398
122.192986	12.52778
122.977036	11.06061
123.031403	10.02572
123.064934	269.724701
124.037086	21.123051
124.075294	1179.595947
124.178055	24.20191
124.737938	10.77436
125.012955	15.34918
125.079422	126.251801
126.051094	37.585281
127.054535	68.858276
128.062531	175.0737
129.069473	201.787704
130.06221	95.536118
131.027618	106.933899
131.084732	132.527893
132.075775	88.366417
133.020676	29.07407
133.08757	152.680496
134.056061	40.7234
134.092392	60.491879
135.061447	12.4218
135.099136	10.56448
136.039688	26.122681
136.074646	95.005157
137.071335	12.43599
140.027908	26.983219
141.067093	45.892059
142.053848	69.273582
143.01915	21.095369
143.0793	101.111198
144.048172	32.817871
144.082687	113.353996
145.088348	102.619202
146.057175	74.545464
146.095642	142.204895
147.105698	45.83952
148.079697	42.640209
148.107529	29.094231
149.044388	14.82857
149.084732	11.58252
150.054993	499.750488
151.054901	63.909142
152.073273	21.22444
153.070023	13.49943
154.068665	33.45752
155.081726	48.140259
156.018539	16.89147
156.080276	62.032051
157.089706	44.801651
158.036316	1219.680054
158.092651	92.353401
158.151917	19.55374
158.752136	11.11559
159.04332	460.709198
159.188217	11.44218
160.049973	1806.395996
160.108292	142.816299
160.168228	28.330429
160.226761	10.45954
160.277695	11.35278
160.447906	18.38409
160.60791	13.84587
160.778442	10.66733
161.050232	206.358307
161.11853	86.160439
162.04924	855.240173
162.123703	36.975609
162.163559	19.335609
162.424103	11.40025
163.053116	75.238022
164.104767	13.89821
164.751587	10.5625
165.073547	54.406502
166.073349	11.55873
166.118637	35.273441
167.07164	15.36111
168.047913	14.9206
168.091949	13.75132
169.095779	15.47051
170.038666	13.20167
170.095978	79.274673
171.07663	35.386681
171.113602	29.74074
172.051651	62.652489
172.11998	20.138889
173.086594	51.21323
173.120499	42.563351
174.046188	48.3545
174.088898	76.71759
174.125244	83.885727
174.803146	10.88981
175.090866	19.37891
175.122818	15.57672
176.048584	27.093679
182.098816	19.87159
183.098297	25.78116
184.052536	13.72515
184.111954	33.951469
185.117111	16.27298
186.032135	744.139771
186.124725	26.18099
187.035553	103.9245
187.101349	22.333731
188.028778	484.431396
188.105728	75.992729
188.14447	71.315582
188.189377	11.14286
188.55217	10.33712
189.026428	27.597219
189.113754	68.110291
190.042862	25.700211
192.097214	15.54222
196.045868	22.94401
198.030884	63.692329
198.12648	23.78586
199.032455	20.39613
199.104813	25.38368
200.032043	44.217232
201.108597	12.46111
202.026031	32.168251
202.124741	31.8347
203.128098	13.36095
204.042252	622.210205
205.045288	107.695503
205.8116	10.05216
206.038727	356.355591
206.108749	13.76681
207.043732	21.972219
207.084961	16.20056
208.056198	14.25888
210.08371	16.70915
211.067932	17.687941
216.135574	111.351997
217.145996	11.58479
218.11319	12.94225
219.069839	12.11138
220.063431	10.11944
224.117264	26.850731
225.087845	13.14236
225.115387	18.846451
226.119202	34.912331
234.054108	11.86237
234.103012	33.46191
235.082443	19.01778
236.102692	18.10272
236.18605	11.13095
237.090729	24.072069
238.094437	15.66301
240.117752	12.0535
244.123672	12.33333
250.09993	34.898281
251.077301	11.2367
252.114014	348.69751
253.115982	70.117706
254.111923	173.443695
255.11113	37.488892
270.12616	182.837204
271.014526	10.13355
271.134308	26.86339
272.120453	94.913406
278.095734	13.36111
287.478882	11.93939
297.118103	10.84637
314.110779	60.368191
315.121857	13.09402
316.109253	19.152781
1089.83667	10.11111
1097.665161	18.810101
END IONS

BEGIN IONS
PEPMASS=667.115
CHARGE=0
MSLEVEL=2
SOURCE_INSTRUMENT=LC-ESI-qTof
FILENAME=20120412_PAVL_FT_Hectochlorin_MCl37H_667_qb.1.1..mgf
SEQ=*..*
IONMODE=Positive
ORGANISM=GNPS-LIBRARY
NAME=Hectochlorin M+H
PI=Gerwick
DATACOLLECTOR=PAVL
SMILES=C[C@H]1[C@@H](OC(C2=CSC([C@H](C(C)(OC(C3=CSC([C@H](C(C)(O)C)OC1=O)=N3)=O)C)OC(C)=O)=N2)=O)CCCC([37Cl])(Cl)C
INCHI=
INCHIAUX=N/A
PUBMED=N/A
SUBMITUSER=mwang87
LIBRARYQUALITY=1
SPECTRUMID=CCMSLIB00000001552
SCANS=1
200.205383	7905.953125
201.312088	2282.589844
202.184189	2641.422119
205.254974	581.435303
206.982574	379.518494
209.032486	1169.384399
218.05217	6432.016602
219.180054	1744.249756
220.168564	6760.512695
242.027893	7910.174805
243.193573	1459.626221
244.113144	919.381775
254.144806	620.508362
275.189453	1406.236694
276.259613	729.785583
277.170776	110.534981
283.131226	521.71582
288.080658	103.833778
310.139099	292.213348
319.200684	885.143799
339.240112	791.940735
345.345703	371.740692
346.210876	493.784088
352.478333	659.311462
363.149353	2321.227783
364.372101	1041.24939
368.109222	647.620544
370.071411	20604.804688
371.081238	12483.442383
372.117126	20494.234375
380.917419	2175.933594
382.427826	894.706909
383.200317	699.094421
388.262695	916.860291
389.123352	1416.532715
390.22522	2869.912109
406.049622	40515.605469
407.048828	46765.414062
408.105499	149047.75
416.402466	611.547852
423.149506	903.423096
424.263	3908.566895
425.219299	6609.915039
425.968079	14881.638672
430.053955	2113.797852
431.029572	802.430115
432.186523	709.077515
436.881104	224.39534
440.986481	900.254395
449.141693	573.384155
458.337006	106.115013
460.371857	393.492645
465.396118	1405.191895
466.358398	8831.212891
467.167389	13780.266602
468.067596	17249.638672
469.29068	188.135635
503.287231	492.797577
504.178986	1070.433228
505.224945	436.725647
507.081726	1693.182495
508.185944	1185.526855
509.079987	3777.662842
511.124298	1534.680908
512.039185	1589.400024
512.984985	421.006287
525.199768	6306.969238
526.47644	2364.611572
527.241821	2761.420166
537.352112	364.821228
544.256226	2726.925293
545.137817	7638.5
547.123718	1689.227783
548.071167	6429.34082
549.103882	16055.711914
552.041504	159.86586
553.132324	894.180359
561.092285	1931.5271
562.148865	12955.956055
563.066345	37420.46875
565.9552	887.740967
567.140869	2663.555908
569.247192	29138.105469
570.125854	17584.548828
571.176636	35376.488281
573.120789	402.811432
587.070068	2855.422852
588.076172	2921.956787
588.984314	18578.496094
589.602722	1700.54126
605.033691	34160.875
606.080688	398522.9375
607.065552	869706.875
607.994751	4770.470215
609.033203	6662.820801
610.75116	668.346741
623.19751	5448.85791
624.035645	12635.942383
624.927429	41709.058594
625.57019	185.915268
629.005005	23515.316406
630.078735	33397.664062
631.136719	33436.390625
648.021484	4314.759766
648.940125	7562.575195
649.588867	505.956726
END IONS

BEGIN IONS
PEPMASS=689.0
CHARGE=0
MSLEVEL=2
SOURCE_INSTRUMENT=LC-ESI-qTof
FILENAME=20120412_PAVL_FT_Hectochlorin_MCl37Na_689_qb.1.1..mgf
SEQ=*..*
IONMODE=Positive
ORGANISM=GNPS-LIBRARY
NAME=Hectochlorin M+H
PI=Gerwick
DATACOLLECTOR=PAVL
SMILES=C[C@H]1[C@@H](OC(=O)C2=CSC(=N2)[C@H](C(OC(=O)C3=CSC(=N3)[C@@H](OC1=O)C(C)(C)O)(C)C)OC(=O)C)CCCC(C)(Cl)Cl
INCHI=InChI=1S/C27H34Cl2N2O9S2/c1-13-17(9-8-10-27(7,28)29)38-23(34)15-11-42-21(30-15)19(37-14(2)32)26(5,6)40-24(35)16-12-41-20(31-16)18(25(3,4)36)39-22(13)33/h11-13,17-19,36H,8-10H2,1-7H3/t13-,17-,18+,19+/m0/s1
INCHIAUX=N/A
PUBMED=N/A
SUBMITUSER=mwang87
LIBRARYQUALITY=1
SPECTRUMID=CCMSLIB00000001553
SCANS=1
264.268188	44.800793
336.234344	9.785302
366.046204	13.827823
387.892639	6.582838
403.217712	44.668766
404.157501	65.088409
405.470825	7.348387
410.143585	149.486877
411.25116	112.561958
412.179016	74.737839
421.304413	4.818037
462.977692	4.487424
469.00415	6.554335
471.30835	4.909925
481.220459	26.670835
499.197113	13.37266
533.110474	83.597824
533.96106	5.201092
535.11377	80.70858
549.308838	23.215158
557.211182	3.581947
570.370728	29.635513
571.052979	8.182089
591.303284	21.080429
591.945557	26.009609
593.074097	85.748672
607.143433	88.119453
608.153687	141.01416
609.188721	76.28334
627.285034	16.054123
628.087769	32.825203
629.779846	33.808384
630.858643	14.804111
632.498413	17.42963
633.223145	33.818077
643.323364	18.413008
645.178589	56.525242
647.682251	18.531187
651.12207	40602.597656
652.124207	46021.046875
653.116089	58183.101562
654.26001	21.1124
657.210938	12.57728
665.442139	4.982367
667.367859	27.299477
669.003113	497.158875
669.962036	296.833435
670.742126	151.199692
671.512329	10.733822
672.143311	24.314074
675.137268	19.050678
707.146484	12.832479
707.813599	7.272285
709.910889	4.346007
742.831787	18.975161
END IONS

BEGIN IONS
PEPMASS=1025.61
CHARGE=1
MSLEVEL=2
SOURCE_INSTRUMENT=LC-ESI-qTof
FILENAME=A2.mgf
SEQ=*..*
IONMODE=Positive
ORGANISM=GNPS-LIBRARY
NAME=Cyclomarin A M+H-H2O
PI=Fenical-Jensen-Moore
DATACOLLECTOR=Max
SMILES=C[C@H]1C(=O)N[C@H](C(=O)N[C@H](C(=O)N([C@H](C(=O)N[C@H](C(=O)N[C@H](C(=O)N([C@H](C(=O)N1)C[C@@H](C)CO)C)[C@@H](C2=CN(C3=CC=CC=C32)C(C)(C)[C@@H]4CO4)O)[C@H](C)C=C(C)C)CC(C)C)C)C(C)C)[C@@H](C5=CC=CC=C5)OC
INCHI=InChI=1S/C56H82N8O11/c1-30(2)24-34(8)44-52(70)60-45(47(66)38-27-64(56(10,11)42-29-75-42)39-23-19-18-22-37(38)39)55(73)63(13)41(26-33(7)28-65)50(68)57-35(9)49(67)61-46(48(74-14)36-20-16-15-17-21-36)53(71)58-43(32(5)6)54(72)62(12)40(25-31(3)4)51(69)59-44/h15-24,27,31-35,40-48,65-66H,25-26,28-29H2,1-14H3,(H,57,68)(H,58,71)(H,59,69)(H,60,70)(H,61,67)/t33-,34-,35+,40+,41+,42+,43+,44+,45+,46+,47-,48-/m1/s1
INCHIAUX=WCNJVJCYRBJSLC-BCJYPDSRSA-N
PUBMED=N/A
SUBMITUSER=mwang87
LIBRARYQUALITY=1
SPECTRUMID=CCMSLIB00000001554
SCANS=1
100.112305	26031.130859
101.115685	2196.751953
102.116814	77.951561
103.053299	78.801201
105.032417	77.862282
112.076607	79.122032
112.11232	358.700287
116.106903	8508.916016
116.206535	158.436005
117.056831	86.774094
117.109856	771.972229
118.064529	374.759186
119.069626	58.55835
120.081055	333.499512
121.064804	4214.605957
121.167297	82.842102
122.06855	464.293304
124.075272	60.036789
126.053886	68.538986
126.091286	379.057404
127.093307	57.246342
128.106735	2125.466064
129.109665	289.055603
130.064484	601.335571
131.05632	79.852867
140.106277	76.477463
141.102875	60.5532
142.071289	62.382961
143.117035	221.444901
144.101578	2795.395996
145.105286	310.77301
146.05954	1801.918945
146.11412	267.639709
147.06369	217.014801
150.091034	1003.895996
151.094788	105.4636
152.142776	63.02071
153.102966	92.56926
155.059204	280.453491
156.101273	3215.111084
157.077682	614.579895
157.101974	500.584015
158.080551	95.559036
160.111923	355.3797
161.111801	73.587051
162.114761	59.858662
165.101883	71.610313
166.157242	67.157532
168.102402	129.042404
169.132828	2506.075928
170.081146	92.074089
170.136703	345.810089
171.147888	124.672096
172.096161	1762.573975
173.101028	217.203598
174.054016	61.803391
174.12738	445.367096
175.130417	86.222229
176.106522	59.730259
183.054855	229.464996
183.108887	101.179199
183.18335	142.243393
184.06279	1080.957031
185.070374	3983.533936
185.19606	73.121422
186.073807	606.762329
187.14389	2668.020996
188.147369	329.125305
189.102051	310.048187
189.137543	97.800667
190.110825	63.667301
191.118011	96.045097
195.110123	73.118057
196.112228	57.433701
197.127991	4246.259766
197.259109	70.161049
198.130875	711.864502
199.144379	1064.16394
199.177673	621.352173
200.071106	705.360474
200.150528	204.164001
201.068176	303.350189
201.10405	360.276886
202.114166	69.08036
204.136749	104.728401
210.148651	2122.733887
211.150101	399.551697
212.154129	58.203091
214.124481	425.676392
215.138885	3908.080078
215.276398	58.773201
216.138641	677.735291
217.097305	5191.708008
217.128601	2390.050049
217.23349	101.789101
218.100998	967.749329
218.129837	493.041992
219.105087	60.417561
221.127518	970.154297
222.13266	231.425201
225.158951	1974.873047
226.161789	378.891388
227.175125	5074.176758
227.314896	77.801872
228.109634	70.885277
228.17865	1041.902954
229.135544	89.171463
229.181274	112.573502
234.147751	160.406097
238.111191	84.182198
239.117096	245.658905
239.211456	1991.034058
240.154434	117.298302
240.2155	503.98999
241.134521	2378.39209
242.136261	556.158997
243.204483	710.298401
244.207321	159.269608
245.128632	5079.050781
245.271973	74.870377
246.131317	1244.182007
247.134277	114.888298
248.161774	66.4254
249.156219	2241.187988
250.16008	504.5802
251.143845	97.61898
253.155258	3445.64209
254.156128	1028.939941
255.158234	181.661896
257.163818	73.650909
261.158203	102.496597
263.150024	102.877502
265.133881	139.623398
266.15033	74.540573
267.205658	504.586792
268.207794	110.2826
269.128601	3632.435059
270.13205	983.093018
271.145813	442.877686
271.201233	2036.964966
272.150787	136.216202
272.204193	464.837097
273.159668	74.23278
273.200195	57.849541
277.154633	2012.189941
278.156433	504.744812
279.151031	174.1595
280.20105	324.375305
281.129333	391.542389
281.204498	80.540466
282.139648	112.105598
283.146942	135.951797
283.196686	64.62793
285.216217	89.951553
286.214905	63.12751
287.211395	102.853401
288.171875	489.511993
289.173187	148.721405
293.181152	63.444462
295.168396	74.372833
297.13681	65.087334
298.153931	200.652695
298.211273	245.327606
299.162903	101.227501
299.212372	76.708763
300.170654	836.739807
301.163727	382.929413
302.162537	73.832977
307.14566	189.345306
308.145996	66.68734
309.161591	83.765427
310.157837	181.019806
311.192535	632.016785
312.196106	237.656097
314.240356	222.714798
315.203247	137.637802
316.165894	7952.10791
316.329651	106.965698
317.169067	2212.055908
318.173401	279.848206
320.196777	150.467896
321.196411	68.056343
324.187927	148.819
325.220825	153.183701
326.166534	94.598251
326.222351	59.565788
327.148163	62.374279
327.205566	90.513512
328.166229	183.607498
329.165527	150.992004
330.181458	331.33139
331.182922	104.584297
332.192749	101.293098
333.20108	58.151161
334.212189	216.162094
335.212555	96.645287
337.190735	76.031197
338.239227	455.114685
339.237183	155.133698
340.166443	519.405212
341.18338	227.040695
342.181671	7789.061035
342.350189	128.139893
343.18515	2579.870117
344.195953	2278.575928
345.206055	804.800598
346.213226	384.908203
347.212708	270.748291
348.19632	306.986603
349.193237	226.389496
350.19873	61.447338
351.180237	163.405106
352.176086	63.822811
353.216278	164.710098
354.193329	140.121902
355.200165	72.149269
356.197357	114.354301
358.175049	112.337303
359.228455	201.983002
360.193451	5416.285156
360.367096	76.733917
361.196259	1487.454956
362.198059	239.668304
363.206726	701.768127
364.214203	377.43869
365.18634	2192.967041
366.191345	892.17981
367.19931	356.134094
368.203339	236.110992
368.249542	307.963013
369.258026	87.800507
370.267151	104.150101
372.228302	2784.235107
373.231262	999.612915
374.20816	4552.005859
374.385345	67.515694
375.211395	1443.531006
376.222168	1195.057983
377.225067	388.623108
378.230194	66.60659
381.187134	101.729599
382.199585	183.999695
382.306213	370.202911
383.208099	88.893158
383.310547	120.115501
384.229462	636.9375
385.230957	214.779907
386.168335	138.472198
386.233765	72.693977
387.228485	469.964111
388.231079	153.752594
391.20224	4823.355957
391.38501	69.30323
392.216217	4143.700195
393.222992	1073.358032
394.216064	542.085022
395.217194	158.915497
396.228241	148.908005
397.234772	70.355827
400.221558	223.026093
401.223022	97.270103
404.254639	7370.176758
404.439026	99.465988
405.257629	2767.414062
406.260345	410.820404
408.225891	362.438995
409.233551	203.0383
410.292725	303.840393
411.223785	95.424812
411.30304	113.878601
412.223358	6032.430176
412.409546	83.984787
413.238129	2601.773926
414.249786	758.247314
415.268677	531.539917
416.272858	192.4431
418.202972	104.972198
421.24231	57.202381
422.259003	82.746674
423.244141	64.79287
424.224335	134.599701
425.23233	69.290863
428.216736	95.997704
430.271545	64.311256
431.265961	1252.968994
432.264557	664.700623
433.261658	115.349403
436.230591	63.09557
438.240417	145.067795
439.23645	103.950996
439.278687	75.559578
441.250366	6463.626953
441.44342	89.464737
442.253052	2769.51709
443.26532	7092.153809
443.456329	103.778297
444.268463	2510.579102
445.278992	2041.175049
446.283234	721.737915
447.294983	517.985779
448.300018	200.627502
449.300781	57.679951
450.300507	64.7612
453.248871	239.9198
454.25351	74.365082
455.263123	83.299667
456.277069	58.368511
458.265289	59.170582
459.260742	5458.931152
459.456604	71.738037
460.26239	2333.069092
461.262726	465.087189
462.274933	75.907532
463.292328	1471.605957
464.29425	661.373413
465.288849	113.077904
466.235596	626.880371
467.245605	266.285706
468.25647	63.333401
473.27594	3511.2771
473.474365	56.84444
474.279327	1595.868042
475.291992	27392.460938
476.295197	10104.610352
476.49176	117.315002
477.297241	1908.301025
478.296082	200.401505
481.339783	62.104172
483.290253	926.686279
484.294312	437.636292
485.270172	330.06601
486.272186	178.153107
487.301758	565.637085
488.309906	491.652802
489.313629	172.7742
490.310608	61.83952
491.287201	5210.694824
491.489838	69.348259
492.290314	2112.577881
493.2948	413.422485
494.29422	71.617554
495.300323	87.061729
496.296204	58.192631
501.26886	92.366707
503.287903	115.460197
504.286926	278.594208
505.292419	108.249001
506.300507	95.550957
507.293518	82.730057
511.328339	102.733398
513.257751	82.331146
515.315674	94.088058
516.311401	57.191849
519.350525	1393.625977
520.354065	694.631714
521.35144	120.022697
527.229431	187.044495
527.324341	140.834702
528.23114	74.944504
528.323914	121.294197
533.311829	455.850403
534.315918	315.391815
535.327881	8668.31543
535.538452	111.255898
536.331848	4362.897949
537.334045	918.58783
538.331787	175.145493
539.313721	143.492798
540.329529	82.115799
543.355591	247.723404
544.357361	97.784088
545.278503	69.780243
554.368774	89.806236
555.337708	65.722542
558.365417	385.166687
559.361023	444.344696
560.3573	154.070206
568.344666	156.482407
569.353333	225.839706
570.355957	89.262192
574.396484	122.647903
575.399719	66.09906
582.366089	1651.077026
583.368225	905.635071
584.290527	252.704803
584.367371	211.305801
585.305298	161.807907
586.360535	6404.249023
586.578613	76.873169
587.362488	3685.909912
588.364929	906.179077
589.363525	193.319794
590.39093	2219.938965
591.394653	1132.39502
592.397339	311.510315
600.375305	883.962097
601.379211	538.486877
602.381592	139.319504
606.365662	372.661804
607.369629	162.991699
611.289429	136.972504
612.307495	123.197502
613.324646	72.429077
614.391113	1115.285034
615.394714	515.497375
616.36969	202.776398
617.371338	80.405006
618.386658	42374.320312
619.389832	19854.009766
620.392517	4562.228027
620.560669	77.223297
620.625549	58.247639
621.395203	567.849304
622.364624	179.604599
623.363831	78.030647
634.397095	722.83252
635.400513	355.415405
636.397278	81.394699
644.364441	283.804596
645.364563	122.065498
650.424133	92.389076
660.402527	299.417389
661.410095	185.512894
672.37439	173.570801
673.382019	130.260406
678.422302	1000.624023
679.425598	555.200073
680.428162	176.950394
710.3573	138.925507
711.382751	298.457092
712.391846	152.433105
725.457947	285.639008
726.463318	236.928406
727.38501	156.991394
728.387695	109.074097
729.486694	59.81073
732.435303	68.197289
739.474365	193.561798
740.480103	105.711899
743.413147	505.249115
744.415405	294.996094
745.420166	78.26561
749.457642	208.569
750.461792	132.716797
751.422302	111.5839
752.419617	76.517159
757.485718	1785.029053
758.489868	1178.227051
759.410278	234.104401
759.486023	326.377014
760.411743	163.012802
760.488647	79.97464
777.488098	179.497604
778.49054	161.517395
779.462158	105.553497
796.496704	90.59655
797.499023	94.775673
811.475525	363.973389
812.476685	263.720093
813.485474	70.871246
837.461792	180.654297
838.467102	134.985397
850.486206	1396.302002
851.490662	980.987671
852.489929	305.159302
853.490723	73.772102
854.487366	109.469597
855.485352	79.415558
869.482849	306.784485
870.483582	220.238693
871.481262	93.413017
882.512817	3711.625
883.515015	2460.058105
884.518555	795.004028
885.513855	213.401505
886.506714	515.008972
887.51239	453.022095
888.510925	165.513702
975.568665	61.150372
976.558716	186.312393
977.557251	105.770103
978.561157	74.533813
981.606689	185.556
982.618591	109.458298
983.620667	56.972919
993.581299	2254.875977
994.584229	1896.31604
995.586426	774.200684
996.590881	223.099304
997.607117	98.826439
1007.596069	370.788513
1008.595764	444.084503
1009.591797	248.339905
1010.594971	82.724922
1025.607788	34488.550781
1026.611084	28843.720703
1027.61377	10563.870117
1027.887573	126.961304
1028.616455	2590.077881
1029.624634	226.112503
END IONS

BEGIN IONS
PEPMASS=665.115
CHARGE=0
MSLEVEL=2
SOURCE_INSTRUMENT=LC-ESI-Hybrid FT
FILENAME=20120412_PAVL_FT_Hectochlorin_MH_665_qb.1.1..mgf
SEQ=*..*
IONMODE=Positive
ORGANISM=GNPS-LIBRARY
NAME=Hectochlorin M+H
PI=Gerwick
DATACOLLECTOR=PAVL
SMILES=C[C@H]1[C@H](CCCC(C)(Cl)Cl)OC(=O)C2=CSC(=N2)[C@@H](OC(C)=O)C(C)(C)OC(=O)C2=CSC(=N2)[C@@H](OC1=O)C(C)(C)O
INCHI=InChI=1S/C27H34Cl2N2O9S2/c1-13-17(9-8-10-27(7,28)29)38-23(34)15-11-42-21(30-15)19(37-14(2)32)26(5,6)40-24(35)16-12-41-20(31-16)18(25(3,4)36)39-22(13)33/h11-13,17-19,36H,8-10H2,1-7H3/t13-,17-,18+,19+/m0/s1
INCHIAUX=USXIYWCPCGVOKF-NOENWEJRSA-N
PUBMED=N/A
SUBMITUSER=mwang87
LIBRARYQUALITY=1
SPECTRUMID=CCMSLIB00000001555
SCANS=1
190.095718	122.539017
200.200897	3540.443359
207.135315	417.973267
218.156921	4853.495117
234.166138	52.355724
242.104462	2420.691895
256.045319	54.834385
270.101074	28.884914
274.984436	38.993267
278.996429	172.974213
281.212067	66.899025
312.330383	18.357784
316.217834	59.981728
319.025024	395.21521
319.722778	46.150475
323.081757	56.159641
324.333008	125.9244
326.250458	39.56805
329.418518	35.279797
330.318939	87.223824
334.274109	58.078747
337.146606	230.896118
352.226685	34.657581
362.02063	278.751617
363.179016	1109.310913
366.108704	51.200104
370.177979	16247.538086
380.201721	143.018524
381.231659	409.982849
388.142578	1288.670532
406.058289	68055.726562
406.74292	79.746994
418.026642	49.801319
422.358185	53.078251
423.036957	829.825806
424.090088	6454.876953
425.099396	14.230043
429.980988	831.103516
436.78418	157.144104
440.948608	450.313477
444.897369	15.494236
447.563049	173.972504
448.293732	155.969559
450.012482	202.847229
458.348541	33.289188
464.151703	47.050781
465.916718	12452.270508
467.023071	169.145874
481.815704	88.221626
489.248108	24.280163
503.108582	782.38855
507.190491	1472.407227
511.200226	615.486572
525.230469	3562.648438
535.037842	26.674019
543.092834	3893.071045
546.54657	590.779053
547.150635	7911.711426
551.211914	227.982117
561.141785	15222.433594
565.123108	705.069519
567.25592	83.216339
569.071045	16930.384766
570.283142	354.787933
571.056641	241.853714
585.132202	115.512482
587.077148	8534.241211
587.789185	24.740517
605.009155	367041.09375
605.727295	312.938324
607.091064	4475.324707
611.084595	141.292816
621.268677	32.130878
623.038208	16478.171875
623.658447	170.162338
627.001709	78.097137
629.009888	23450.410156
629.67395	62.51519
646.234863	670.967041
647.032104	3884.974365
END IONS

BEGIN IONS
PEPMASS=1065.6
CHARGE=1
MSLEVEL=2
SOURCE_INSTRUMENT=LC-ESI-qTof
FILENAME=A2_1.mgf
SEQ=*..*
IONMODE=Positive
ORGANISM=GNPS-LIBRARY
NAME=Cyclomarin A M+Na
PI=Fenical-Jensen-Moore
DATACOLLECTOR=Max
SMILES=C[C@H]1C(=O)N[C@H](C(=O)N[C@H](C(=O)N([C@H](C(=O)N[C@H](C(=O)N[C@H](C(=O)N([C@H](C(=O)N1)C[C@@H](C)CO)C)[C@@H](C2=CN(C3=CC=CC=C32)C(C)(C)[C@@H]4CO4)O)[C@H](C)C=C(C)C)CC(C)C)C)C(C)C)[C@@H](C5=CC=CC=C5)OC
INCHI=InChI=1S/C56H82N8O11/c1-30(2)24-34(8)44-52(70)60-45(47(66)38-27-64(56(10,11)42-29-75-42)39-23-19-18-22-37(38)39)55(73)63(13)41(26-33(7)28-65)50(68)57-35(9)49(67)61-46(48(74-14)36-20-16-15-17-21-36)53(71)58-43(32(5)6)54(72)62(12)40(25-31(3)4)51(69)59-44/h15-24,27,31-35,40-48,65-66H,25-26,28-29H2,1-14H3,(H,57,68)(H,58,71)(H,59,69)(H,60,70)(H,61,67)/t33-,34-,35+,40+,41+,42+,43+,44+,45+,46+,47-,48-/m1/s1
INCHIAUX=WCNJVJCYRBJSLC-BCJYPDSRSA-N
PUBMED=N/A
SUBMITUSER=mwang87
LIBRARYQUALITY=1
SPECTRUMID=CCMSLIB00000001556
SCANS=1
485.273743	135.476303
486.284851	63.29353
532.348328	39.300949
534.775024	48.140911
540.264832	39.615608
542.29364	39.23167
560.374695	44.166901
615.350769	54.048569
618.381104	36.128479
625.297241	46.817791
631.409912	51.9464
672.37616	48.831242
694.355591	42.626411
709.4245	43.1269
710.3526	56.445789
721.390503	38.17141
748.475159	36.87212
751.47229	112.798203
752.473755	62.063629
776.465454	41.300369
792.498169	41.223469
793.498535	40.77282
804.463196	536.074402
805.463684	354.589386
806.466492	81.154953
808.494202	573.04541
809.497559	355.794586
810.49585	77.300552
818.478088	101.259697
819.478027	89.93782
820.4823	36.218769
836.490051	14055.360352
837.493042	11476.94043
837.749084	112.822601
838.495789	2653.943115
839.498352	524.731995
1019.591003	48.120689
1020.589905	36.89901
1033.572266	61.968521
1034.577026	83.843163
1047.589111	983.323486
1048.593384	1334.342041
1049.595215	379.853912
1050.598633	101.241997
1065.095093	51.220619
1065.600708	34387.0
1066.603516	34801.039062
1067.606323	12329.849609
1067.89856	156.042007
1068.04834	53.57357
1068.608032	3020.436035
1069.605103	323.086395
END IONS

BEGIN IONS
PEPMASS=351.182
CHARGE=1
MSLEVEL=2
SOURCE_INSTRUMENT=LC-ESI-qTof
FILENAME=A3.mgf
SEQ=*..*
IONMODE=Positive
ORGANISM=GNPS-LIBRARY
NAME=Halimide B M+H
PI=Fenical-Jensen-Moore
DATACOLLECTOR=Max
SMILES=N/A
INCHI=N/A
INCHIAUX=N/A
PUBMED=N/A
SUBMITUSER=mwang87
LIBRARYQUALITY=1
SPECTRUMID=CCMSLIB00000001557
SCANS=1
101.037682	128.460602
102.039429	134.887207
103.054214	3096.673096
104.050972	2034.80896
105.068855	5880.435059
105.164452	115.918602
106.063171	7430.242188
106.161278	155.038803
107.063065	14091.889648
107.15522	302.057312
108.074951	20968.390625
108.178215	349.5271
109.070824	17241.310547
110.077019	2664.302979
111.085297	366.298309
113.034721	1567.001953
114.041252	278.454193
115.053741	1812.477051
116.050728	1840.619995
117.055763	8792.583984
117.153717	161.780701
118.063263	12790.969727
118.165581	112.881302
119.060181	15379.290039
119.160271	271.471008
120.06945	13665.30957
120.166313	213.520401
121.07563	14971.040039
121.17852	297.707306
122.091759	12610.55957
122.198448	88.443077
123.091743	3171.968018
124.097122	437.758911
125.03421	1209.302002
126.041245	410.506592
127.048248	159.384705
128.049271	1054.485962
129.051727	381.674591
130.064484	2819.700928
131.061081	8527.664062
131.166153	169.483994
132.070374	12790.099609
133.075668	87548.828125
134.075302	27139.789062
135.090836	31710.359375
136.094742	7408.195801
136.201355	122.466202
137.097534	1071.739014
138.055984	113.124496
138.107361	100.969299
140.050537	153.208603
142.060303	1025.228027
143.06102	3377.86499
144.066574	5522.263184
145.0755	55533.878906
146.075073	16179.120117
147.090256	32605.839844
148.093323	8871.732422
148.202347	124.111
149.106705	25895.640625
150.111923	4918.734863
151.049423	1074.807983
151.116806	610.558289
152.053024	165.0009
154.066635	108.288002
155.060349	1286.17395
156.066986	1117.212036
157.071091	8340.959961
157.184921	133.782501
158.072571	5575.449219
159.0905	21140.349609
160.087341	72831.132812
161.09346	20679.140625
162.029068	1555.598022
162.101868	20918.390625
163.061462	6101.751953
163.103027	3394.60791
163.176636	137.550995
164.067703	2346.431885
165.065338	2324.11499
166.067825	464.26001
167.06604	275.13681
168.076553	185.837799
169.07428	430.080505
170.071686	774.25238
171.069641	1664.203979
172.086105	19860.130859
173.078278	6420.211914
173.216232	89.401619
174.063644	2939.761963
174.101318	9916.980469
174.223511	177.917801
175.102921	3479.573975
176.117584	24717.980469
177.071625	2896.383057
177.122513	7502.651855
177.245361	113.446404
178.075134	570.247925
178.127213	1094.073975
179.078873	125.737
179.13269	100.133904
181.067459	210.312103
182.071762	1546.227051
183.075684	479.567291
184.086136	2664.437012
185.079773	1984.634033
186.090179	1365.69397
187.08783	1731.624023
188.082947	6573.120117
188.207245	129.4767
189.096268	3173.593018
190.098083	1541.444946
191.057388	1529.005981
191.091476	1632.090942
192.063507	8521.205078
192.191467	151.798401
193.067123	1419.43103
194.073318	148.871201
195.089325	179.235504
196.088852	132.995499
197.088486	139.502594
198.091324	270.159088
199.097046	2602.581055
200.081787	8578.995117
200.213882	141.577698
201.080246	2992.751953
202.091675	3036.300049
203.057022	5647.012207
203.185501	105.079201
204.061722	1301.046997
204.112228	1718.875977
205.071304	740.253113
205.110382	757.325378
206.078354	197.724701
206.115829	185.461899
209.087296	130.816803
210.100128	580.40863
211.093216	204.5569
212.116669	172.985901
213.09581	123.5187
214.097656	661.329224
215.095535	877.533386
216.089233	1884.876953
217.075333	20917.009766
218.08194	4093.340088
219.087143	2257.532959
220.089432	511.231506
221.08963	103.027298
222.101212	104.954002
227.092178	885.6297
228.077545	2333.457031
229.075989	1170.571045
230.08313	1306.631958
231.118851	1205.69104
232.124496	1416.041992
233.105499	1732.052979
234.107101	446.444794
236.118912	97.219223
237.10936	93.705223
238.098083	472.738098
239.108597	137.628296
240.110931	88.65831
241.109192	130.106506
242.10495	259.556091
243.10173	1702.30896
244.103119	797.256897
245.103073	78976.273438
246.105972	18524.779297
247.108795	2059.511963
248.111679	202.819107
255.123672	749.138672
256.124695	205.440399
259.118713	2954.85791
260.126465	34838.441406
261.129242	8318.953125
261.279419	140.039703
262.131989	1140.883057
263.14679	150.827499
265.111115	117.029503
266.096985	101.138901
278.164764	318.081696
279.168488	164.559601
280.178436	280.274109
282.111603	133.373398
283.118988	7804.870117
283.274384	116.8657
284.122101	2202.61792
285.124329	251.418503
288.150452	91.570534
289.142029	93.691971
290.154999	88.059196
295.118378	106.067299
306.160828	738.543396
307.160706	297.644196
308.171112	181.809998
309.153442	90.354668
318.145172	101.309196
323.185822	1018.047974
324.188446	300.891602
333.169739	286.636505
334.157196	352.294586
351.181885	34912.21875
352.184814	11852.259766
352.357971	163.079895
353.187561	1888.751953
354.187836	241.125
END IONS

BEGIN IONS
PEPMASS=687.0
CHARGE=0
MSLEVEL=2
SOURCE_INSTRUMENT=LC-ESI-Hybrid FT
FILENAME=20120412_PAVL_FT_Hectochlorin_MNa_687_qb.1.1..mgf
SEQ=*..*
IONMODE=Positive
ORGANISM=GNPS-LIBRARY
NAME=Hectochlorin M+Na
PI=Gerwick
DATACOLLECTOR=PAVL
SMILES=C[C@H]1[C@H](CCCC(C)(Cl)Cl)OC(=O)C2=CSC(=N2)[C@@H](OC(C)=O)C(C)(C)OC(=O)C2=CSC(=N2)[C@@H](OC1=O)C(C)(C)O
INCHI=InChI=1S/C27H34Cl2N2O9S2/c1-13-17(9-8-10-27(7,28)29)38-23(34)15-11-42-21(30-15)19(37-14(2)32)26(5,6)40-24(35)16-12-41-20(31-16)18(25(3,4)36)39-22(13)33/h11-13,17-19,36H,8-10H2,1-7H3/t13-,17-,18+,19+/m0/s1
INCHIAUX=USXIYWCPCGVOKF-NOENWEJRSA-N
PUBMED=N/A
SUBMITUSER=mwang87
LIBRARYQUALITY=1
SPECTRUMID=CCMSLIB00000001558
SCANS=1
235.988815	1.147839
238.411514	4.308138
246.212738	6.550864
264.235657	8.450529
266.096619	2.901363
280.056488	4.937373
282.235138	3.190585
287.030396	3.51355
289.494263	1.407248
307.838074	5.345962
315.136353	10.453178
329.001953	5.584613
332.256348	16.485592
343.506683	1.110895
355.918274	8.7033
358.798798	2.449497
366.140442	4.480408
368.104919	6.827209
372.271851	6.885105
373.768524	2.77806
375.070343	2.629535
388.091248	1.064428
392.220154	9.341306
403.157715	78.520203
408.214264	8.734553
410.189331	253.091949
412.13324	6.039737
416.953552	9.746747
419.109406	3.575811
419.848755	14.464087
420.683838	4.158653
425.936462	1.621385
435.053406	10.776339
436.000244	2.147923
437.093262	17.503891
437.994415	2.190265
446.123016	2.865114
451.87146	13.318077
459.100677	2.009298
462.957336	3.090989
467.356873	1.150855
468.054596	8.699727
469.176208	9.459739
471.26239	3.135642
472.171631	1.56314
476.95224	35.863964
477.711639	9.414466
479.095306	2.277989
481.33078	1.165084
497.015411	7.557239
504.938538	3.781713
513.332397	15.181675
515.179016	23.874329
527.557007	12.078759
528.254761	7.366312
531.028687	9.038985
533.122803	117.160988
537.140686	5.307294
547.018188	1.8654
548.860962	8.865085
549.527222	4.638539
550.422119	3.625594
551.082642	31.928635
552.05719	8.105206
553.030212	14.970055
568.149353	22.090469
569.085266	24.68149
570.119629	8.158688
571.095886	25.506819
571.612183	7.080538
572.402466	1.655672
573.053772	3.716486
587.114868	1.837423
588.525024	3.194229
591.10083	115.558319
593.022156	37.091331
605.086792	21.045784
605.996338	13.362865
606.581909	1.450779
607.220154	467.892792
608.477112	52.049118
609.157593	35.933556
610.33429	24.028416
611.0224	40.384453
612.957275	4.983544
619.71051	6.858152
625.771851	11.158183
626.609924	6.572627
627.180786	20.77409
628.509399	50.90519
629.132263	275.929016
630.299438	110.681549
631.131409	231.243347
632.118103	102.349701
633.149414	34.029037
633.91687	6.85622
637.891602	6.318653
638.490662	37.795551
639.12793	14.252605
643.079529	49.151146
645.011169	38.51247
645.967651	3.33684
646.816956	10.722941
648.347595	264.325989
649.423889	1484.233276
651.197998	175993.09375
651.918335	113.402534
652.663086	0.853487
655.994507	17.228039
664.961609	260.005981
666.02301	146.493576
667.093872	2882.510498
668.12677	6229.067383
668.984253	1567.230225
670.037659	268.476837
671.078491	110.622246
672.204712	18.856756
680.245728	2.33778
703.03125	130.480804
704.281311	79.030945
704.9823	431.996887
706.021851	136.167664
706.972717	207.168808
707.983582	38.902458
709.018433	6.333788
733.204102	2.582962
740.968506	57.515991
742.937073	76.65979
744.383667	10.326749
1190.243652	5.822647
END IONS

BEGIN IONS
PEPMASS=373.164
CHARGE=1
MSLEVEL=2
SOURCE_INSTRUMENT=LC-ESI-qTof
FILENAME=A3_1.mgf
SEQ=*..*
IONMODE=Positive
ORGANISM=GNPS-LIBRARY
NAME=Halimide B M+Na
PI=Fenical-Jensen-Moore
DATACOLLECTOR=Max
SMILES=N/A
INCHI=N/A
INCHIAUX=N/A
PUBMED=N/A
SUBMITUSER=mwang87
LIBRARYQUALITY=1
SPECTRUMID=CCMSLIB00000001559
SCANS=1
114.997688	18.585751
120.07692	11.44002
177.034821	19.89719
216.851959	15.35099
373.162964	88.845261
374.164093	48.464008
374.236267	12.96016
453.903107	38.544971
END IONS

BEGIN IONS
PEPMASS=569.0
CHARGE=0
MSLEVEL=2
SOURCE_INSTRUMENT=LC-ESI-qTof
FILENAME=20120412_PAVL_FT_JamaicamideA_MCl37H_569_qb.1.1..mgf
SEQ=*..*
IONMODE=Positive
ORGANISM=GNPS-LIBRARY
NAME=Jamaicamide A M+H
PI=Gerwick
DATACOLLECTOR=PAVL
SMILES=C[C@H]1C=CC(=O)N1C(=O)/C=C(\CCNC(=O)CC/C=C/C(C)CC/C(=C/Cl)/CCCC#CBr)/OC
INCHI=InChI=1S/C27H36BrClN2O4/c1-21(12-14-23(20-29)10-5-4-8-17-28)9-6-7-11-25(32)30-18-16-24(35-3)19-27(34)31-22(2)13-15-26(31)33/h6,9,13,15,19-22H,4-5,7,10-12,14,16,18H2,1-3H3,(H,30,32)/b9-6+,23-20+,24-19+/t21?,22-/m0/s1
INCHIAUX=N/A
PUBMED=N/A
SUBMITUSER=mwang87
LIBRARYQUALITY=1
SPECTRUMID=CCMSLIB00000001560
SCANS=1
164.293427	33.709499
165.226822	7.650838
166.241669	190.879303
167.436493	43.788353
168.164459	53.290386
169.448395	16.522985
171.189713	225.278351
172.888214	54.535118
173.589523	33.622101
176.135788	385.854065
177.35968	31.326567
179.573151	22.105556
180.494751	129.29245
182.222916	697.87738
183.156235	82.31131
184.26355	21.904854
185.286118	533.348511
186.46199	98.195297
188.34758	32.754711
189.348328	45.674805
192.999893	35.740711
196.50415	43.23362
197.414551	29.644989
199.289642	931.25531
200.309265	204.559158
201.531021	19.91061
208.119675	24076.425781
209.162354	2335.220703
210.262299	287.937531
213.271835	8.968795
216.508789	39.880375
217.353455	67.635696
218.572556	59.24894
220.991821	32.339996
223.322617	41.423325
224.384705	7.926021
225.259369	83.711906
227.297073	2308.818359
228.121094	166.812683
228.764557	10.532267
230.224274	33.24646
234.218094	31.516315
236.241028	636.223083
237.201843	32.669498
238.266876	96.43811
241.509644	50.595562
244.259094	81.131851
245.183807	13.853218
248.358749	23.101364
251.30545	31.413954
252.368317	30.216011
253.081726	41.226677
254.049377	29.097322
255.208069	22.633991
256.133087	18.43243
257.345886	14.558797
263.409912	54.305351
264.105255	66.150909
265.292236	83.835289
266.24585	17.192902
276.814697	18.111914
278.970032	104.083366
281.131836	34.144417
285.646667	43.529549
291.247925	46.791836
303.11554	31.44627
304.466248	23.240709
306.307404	63.444046
307.22821	282.197052
308.32428	51.476837
309.263824	221.901764
314.671875	15.641985
322.25116	15.707808
324.111023	9.10137
325.395935	27.149506
326.329346	156.893951
327.234039	97.08754
333.523743	12.00885
336.168518	112.999008
354.452393	187.164276
355.29541	44.152199
359.639038	17.091797
361.337372	77.595139
362.146301	575.690796
369.634735	42.849419
374.323425	34.825027
391.470337	25.074699
402.288605	154.385788
403.497559	78.161987
404.225616	167.390594
406.016846	86.750755
407.90564	20.912043
416.245697	182.910675
418.312073	280.66983
419.364807	371.092987
420.450836	27.599588
434.123505	1570.992432
435.234009	558.067871
436.246857	3658.246094
440.10498	669.890015
441.676453	101.667336
442.460663	8.192163
451.116455	169.260391
453.973053	50.11813
455.375824	19.786886
457.072296	72.897957
470.112549	3351.697021
471.347168	27963.34375
472.180695	136868.328125
473.004791	35.939079
499.213837	98.865906
500.183685	130.891479
501.292419	464.239746
508.253052	24.883673
520.701721	46.173019
532.280884	52.264771
533.104004	93.486397
536.251709	796.061646
536.934143	3389.147949
537.584656	27.25865
539.347778	20.859644
540.158447	99.335358
550.668884	52.798313
END IONS

BEGIN IONS
PEPMASS=438.152
CHARGE=1
MSLEVEL=2
SOURCE_INSTRUMENT=LC-ESI-qTof
FILENAME=A4.mgf
SEQ=*..*
IONMODE=Positive
ORGANISM=GNPS-LIBRARY
NAME=Orellin B M+H
PI=Fenical-Jensen-Moore
DATACOLLECTOR=Max
SMILES=N/A
INCHI=N/A
INCHIAUX=N/A
PUBMED=N/A
SUBMITUSER=mwang87
LIBRARYQUALITY=1
SPECTRUMID=CCMSLIB00000001561
SCANS=1
101.944962	14.40761
123.044296	12.34028
143.072922	19.97349
173.084656	15.41565
180.078568	20.671301
192.07663	29.96003
217.054535	12.52355
242.082977	27.17008
272.133148	17.0
273.064636	10.70525
278.8638	14.42976
323.212738	12.69551
438.140381	15.50417
439.357697	19.33333
931.513733	13.63575
1384.638672	56.482052
END IONS

BEGIN IONS
PEPMASS=591.0
CHARGE=0
MSLEVEL=2
SOURCE_INSTRUMENT=LC-ESI-qTof
FILENAME=20120412_PAVL_FT_JamaicamideA_MCl37Na_591_qb.1.1..mgf
SEQ=*..*
IONMODE=Positive
ORGANISM=GNPS-LIBRARY
NAME=Jamaicamide A M+H
PI=Gerwick
DATACOLLECTOR=PAVL
SMILES=C[C@H]1C=CC(=O)N1C(=O)/C=C(\CCNC(=O)CC/C=C/C(C)CC/C(=C/Cl)/CCCC#CBr)/OC
INCHI=InChI=1S/C27H36BrClN2O4/c1-21(12-14-23(20-29)10-5-4-8-17-28)9-6-7-11-25(32)30-18-16-24(35-3)19-27(34)31-22(2)13-15-26(31)33/h6,9,13,15,19-22H,4-5,7,10-12,14,16,18H2,1-3H3,(H,30,32)/b9-6+,23-20+,24-19+/t21?,22-/m0/s1
INCHIAUX=N/A
PUBMED=N/A
SUBMITUSER=mwang87
LIBRARYQUALITY=1
SPECTRUMID=CCMSLIB00000001562
SCANS=1
169.481735	3.717805
170.116302	2.368383
180.625412	9.358668
182.256866	164.130707
183.20813	35.213417
184.155975	22.376575
185.234055	10.322553
187.430328	3.719226
190.727722	9.974508
192.28302	6.016971
193.34581	3.806396
198.213364	26.349125
199.14296	6.650789
199.928024	5.728293
202.237381	10.750378
204.219437	8.057843
207.352234	4.492064
208.204468	36.991985
209.376129	4.429953
210.260956	2.61156
211.159134	0.991559
214.275696	3.117547
215.220947	11.847384
216.284485	19.806465
217.942322	25.634674
218.663422	14.159304
219.353683	8.414796
220.059204	6.959995
222.400497	8.663279
224.524902	4.870403
225.159943	6.095819
227.20752	3.682807
228.175323	10.945765
230.243042	626.276001
231.234314	93.973831
232.315002	5.54948
236.147247	25.472816
237.335907	8.905393
239.64447	6.460947
243.218018	14.350277
244.181427	12.570841
245.488739	6.872164
246.736679	39.786404
247.375183	1.609937
248.501892	7.195004
251.445862	3.972736
256.10083	12.182508
257.163269	57.072823
258.186371	156.187683
259.19928	62.118698
260.06189	22.649057
263.3573	4.020783
264.374146	26.422089
265.382568	4.762686
266.263184	102.35392
267.34845	24.252352
272.144043	36.264961
273.170227	69.712013
274.120361	5.939258
274.979919	2.216173
277.201569	17.39106
278.200928	11.196893
279.072998	3.35696
280.041168	5.919062
282.207397	18.57262
283.540527	7.683428
284.150665	5.673907
286.764374	6.727617
288.244995	47.64677
289.091187	12.459767
291.170258	4.845952
292.596405	16.05953
293.387848	13.137106
294.391846	4.008705
299.114075	8.304666
301.252014	4.953311
302.241394	16.358267
303.105011	1.613987
305.427979	9.40611
306.283752	9.808208
308.21936	26.431637
309.329041	45.023144
310.246216	5.677588
313.464203	5.429599
315.061646	7.200561
316.556763	3.18895
318.281433	8.963934
321.193848	118.753975
322.101227	9.587538
323.240967	40.913921
324.090881	9.774399
325.428558	8.526073
326.329895	13.661201
327.346985	2.746159
328.109253	9.27344
330.278625	5.195471
331.157288	6.378896
332.23584	6.444856
334.342255	17.527325
336.489746	5.749891
337.305481	17.469385
339.887573	1.47657
341.139648	5.111611
343.170044	11.358638
344.378387	70.022957
345.251678	14.511668
346.282013	23.782393
347.264832	26.882374
348.200714	22.239174
349.330505	22.763472
350.455048	31.509609
354.299835	40.536346
355.119263	89.725563
356.065643	91.137451
356.825989	5.560173
357.428162	23.711742
358.237183	5.730589
359.759155	9.76413
361.465881	20.377771
362.319702	47.832458
363.343201	35.609703
364.819336	48.358826
366.032196	20.832388
367.097595	20.808558
368.327026	6.655846
369.205383	114.937584
370.213684	55.14542
371.340576	4.337857
372.194092	30.008732
373.164581	21.964642
374.239807	32.587475
376.151001	442.734985
377.343536	124.302216
378.211975	55.166252
380.225677	10.883999
381.126038	15.694951
382.270233	23.921192
383.164795	30.647808
384.113983	199.962799
384.957703	28.568783
386.361816	8.033689
389.267609	3.117507
390.0289	4.611308
391.234558	4.570565
392.061157	10.932733
393.99054	8.141095
395.544128	4.42591
396.15506	28.28924
397.114746	5.423034
397.978821	16.642815
398.637299	15.436762
399.697052	11.821146
400.6745	6.887458
402.097961	6.923825
403.116547	5.87224
406.133667	47.869625
407.259644	75.909798
408.160461	377.788818
408.993317	28.775589
409.929016	73.355743
410.97934	42.163231
412.070465	83.868622
413.29071	54.418411
414.223145	4.920025
415.11615	36.922676
416.242279	2.178469
417.648254	5.01468
419.167145	12.053829
421.858398	1.345037
422.625488	28.335361
423.784058	16.402075
425.552307	72.799423
426.220306	143.118927
427.158203	479.524994
428.224915	64.883736
429.335999	4.849659
430.352325	6.361614
431.702179	4.282172
432.643341	6.775211
435.803558	19.593824
441.246002	98.832924
442.532227	19.763641
443.256104	23.43849
444.401703	6.087076
445.197357	21.728134
446.104309	9.353847
447.962128	3.190881
448.942566	9.097617
450.274902	7.194672
451.312775	3.066327
452.141998	27.28706
456.198395	31.393921
456.964111	6.977626
458.281708	46.834915
459.190826	18.122833
459.9021	11.601707
461.439758	17.084816
462.491394	44.614029
463.309235	8.946923
465.276764	5.665741
466.272583	9.292988
467.291992	28.253637
468.275513	34.509556
471.167633	164.450424
472.091461	49.22385
473.265869	3136.59668
474.231354	1066.490723
475.307495	175.221024
476.218353	39.313782
477.131775	41.408379
478.296448	35.362675
479.402985	33.722137
480.126343	10.71689
481.328461	10.940079
482.17514	15.166358
483.255615	6.563775
490.451355	6.642304
492.085266	332.703247
493.076416	1129.619263
494.027557	5617.645996
495.074432	302.610535
495.733643	1.81308
496.418152	1.496393
497.45105	11.691264
498.331818	4.810859
498.933685	2.240943
509.195129	424.18631
510.243011	139.189636
511.204071	248.164093
512.125061	9.643522
513.221558	1.293581
517.983643	10.965117
521.104309	18.985344
522.111084	3.662108
523.209106	35.485882
524.120972	14.481136
528.885986	12.266284
530.433044	31.219812
531.279175	53.756306
532.184937	13.892548
533.372925	4.743209
535.376099	8.038231
541.665894	69.976761
542.414246	22.328957
545.090027	17.337719
546.123291	68.014969
547.149048	292.271393
548.300537	19.501633
549.202515	9.205561
551.086792	6.291482
552.053223	3.803843
553.077698	236.768433
554.069458	222.712357
555.183777	457.981934
556.516113	2.84336
558.245728	519.123718
559.127808	1270.704834
560.060547	126.022324
563.07019	46.315201
564.246094	2.276809
571.857666	7.141827
572.61377	49.940155
573.657104	9.828745
581.25061	14.230246
611.269653	21.188999
613.095459	16.889503
690.157959	5.410031
END IONS

BEGIN IONS
PEPMASS=730.418
CHARGE=1
MSLEVEL=2
SOURCE_INSTRUMENT=LC-ESI-qTof
FILENAME=A5.mgf
SEQ=*..*
IONMODE=Positive
ORGANISM=GNPS-LIBRARY
NAME=Exumolide A M+H
PI=Fenical-Jensen-Moore
DATACOLLECTOR=Max
SMILES=CC(C)C[C@@H]1OC(=O)[C@@H]2CCCN2C(=O)[C@H](CC2=CC=CC=C2)NC(=O)[C@H](CC2=CC=CC=C2)NC(=O)[C@H](CC(C)C)N(C)C(=O)[C@@H]2CCCN2C1=O
INCHI=InChI=1S/C41H55N5O7/c1-26(2)22-34-37(48)42-30(24-28-14-8-6-9-15-28)36(47)43-31(25-29-16-10-7-11-17-29)38(49)46-21-13-19-33(46)41(52)53-35(23-27(3)4)40(51)45-20-12-18-32(45)39(50)44(34)5/h6-11,14-17,26-27,30-35H,12-13,18-25H2,1-5H3,(H,42,48)(H,43,47)/t30-,31-,32-,33-,34-,35-/m0/s1
INCHIAUX=GWGKNTICBPKKKW-LBBUGJAGSA-N
PUBMED=N/A
SUBMITUSER=mwang87
LIBRARYQUALITY=1
SPECTRUMID=CCMSLIB00000001563
SCANS=1
100.075676	495.747986
100.112137	15535.5
100.205025	337.367493
101.115273	1220.208008
103.053635	228.897003
105.069351	195.327499
109.077888	73.086304
112.111534	107.738403
114.090004	70.915047
115.07489	351.347687
116.070168	3208.105957
117.072548	247.315094
118.068298	74.074966
120.080475	6533.36377
120.182068	115.464996
121.083824	674.873413
123.067177	845.15387
124.074692	636.029602
126.054535	2094.37793
127.058197	199.632706
127.083267	191.945999
128.106003	474.355499
129.103943	197.031998
130.064255	430.635712
131.055069	181.873398
132.079727	66.734413
136.104797	161.963806
138.054031	373.402588
138.127197	362.640808
139.083694	72.093231
139.126434	66.865639
143.070801	233.242599
144.081955	95.345047
148.110077	72.887444
150.052185	66.148201
150.127075	189.168594
151.061996	1246.405029
151.125122	79.610031
152.069885	1387.92395
152.139526	75.705811
153.074554	119.060699
156.101044	440.845703
157.102356	70.116722
164.103302	143.419296
164.137436	94.078407
166.121994	6297.509766
166.242981	113.756798
167.12352	1053.702026
168.136688	342.216492
170.096207	130.9785
172.111572	3435.073975
173.114838	561.002502
174.122391	67.889633
178.121887	92.719276
179.153412	208.557297
180.089005	142.902405
180.138763	305.37381
181.168533	127.554001
182.116989	446.348694
183.118637	65.695648
184.132523	14258.55957
184.25882	279.539612
185.1362	1904.98999
186.141327	236.8591
188.142303	877.242004
189.145737	171.260895
192.101562	96.866463
193.132828	164.575607
194.11705	64301.03125
195.116516	19339.060547
196.122177	2434.647949
197.145432	250.048798
198.129593	144.232895
199.120422	104.661697
200.107101	1225.858032
201.112122	257.309387
206.188797	75.925438
207.148682	124.488602
208.134018	253.251694
209.133865	67.095039
209.161621	65.43708
210.111542	268.170197
212.127548	21815.289062
213.13092	3355.897949
214.134079	358.215393
215.124908	66.137253
216.134964	108.255096
217.133179	1143.875977
218.117416	2861.543945
219.120361	544.879395
220.120926	81.974449
222.127075	1327.758057
223.138901	494.615814
224.163315	1632.380981
225.162186	685.648376
226.162735	153.999405
227.118103	255.127106
228.112473	102.9683
229.154892	133.968994
230.149979	112.739197
232.111084	77.339073
240.12233	373.786194
242.172684	82.789207
243.169876	10216.80957
243.314331	160.934494
243.355301	65.302338
244.172577	1858.036987
245.128586	809.072083
245.168762	332.029297
246.130569	226.903
247.180878	1184.531006
248.183762	300.246613
255.111893	106.778
257.126526	128.550705
263.138245	2070.579102
264.14212	461.638397
265.146484	78.839973
267.148712	829.962585
268.151642	210.585098
269.162811	70.265289
273.124146	70.800591
275.175049	2416.975098
276.178192	606.619629
277.181946	73.508163
277.226959	194.3703
278.227783	66.70903
279.168793	222.703094
280.174408	78.253487
281.185699	16870.810547
281.340454	288.531403
282.188751	3886.843018
283.191925	384.699005
285.194641	173.649704
286.187042	72.001381
293.222046	313.643005
294.222595	70.421143
295.144043	291.338898
295.235229	116.2509
296.150299	90.746109
303.183136	117.1064
307.16568	103.325897
309.180634	6160.996094
309.343781	84.814293
310.183594	1637.409058
311.187958	210.378998
311.227448	225.862106
313.190887	327.691803
314.175201	1925.812988
315.177887	472.356812
316.180542	73.325043
319.179901	618.114624
320.182404	192.242401
321.216736	613.133118
322.221313	235.943497
323.23288	76.363037
326.213318	72.970703
331.20105	516.960388
332.205261	134.017502
335.2117	261.725403
336.213318	69.405449
339.227753	11999.969727
339.397461	184.186096
340.228912	4356.882812
341.225861	787.353516
342.185394	136.481003
342.227997	133.145706
345.196442	330.751404
346.200012	120.511597
347.182617	76.527443
359.196381	698.394714
360.198761	220.248505
365.184845	950.273315
366.189392	289.693298
369.180023	100.7201
372.226166	96.08506
375.170837	203.4151
376.174286	85.444923
383.232971	1767.375977
384.236115	616.22168
385.238739	106.423302
390.238159	1490.139038
391.222321	645.80072
392.211975	248.020493
392.286194	222.898605
393.289459	83.634117
404.232758	64.900543
408.285583	1653.342041
409.288544	583.411377
410.210266	125.652603
410.291473	95.084259
411.227478	427.570801
412.231171	158.231796
422.244141	1324.009033
423.246735	491.959015
424.248505	91.288063
428.254028	1128.473022
429.256775	456.247101
430.260681	78.973244
434.263458	194.288605
435.285309	103.361801
436.281189	1854.932007
437.28479	672.885986
438.239136	138.055298
438.283295	150.256897
440.277313	175.963196
441.286499	93.861023
456.246338	305.030487
457.251465	95.6661
461.247925	83.214119
468.285004	123.261597
469.286743	98.807114
478.269714	164.615906
486.295898	815.046326
487.298035	406.957886
488.295959	123.251503
510.33136	98.01487
519.295715	112.5783
530.300049	253.041702
531.305664	170.836899
537.306763	2769.465088
538.320312	2443.748047
539.328735	949.643127
540.33136	197.839905
555.352844	533.783081
556.356445	316.890594
557.357178	72.223373
565.336975	98.636597
566.338135	106.873596
575.323547	369.370087
576.326233	211.373703
577.324829	74.210709
582.362854	94.863907
583.348999	1729.307007
584.352905	871.866272
585.349365	228.975998
586.311951	126.276604
587.350159	68.100693
593.331909	83.843163
603.315857	201.029007
604.316162	90.500366
633.366211	236.171494
634.371277	188.4655
657.40155	220.6698
658.403442	146.835297
685.395752	780.49707
686.401367	619.290771
687.40686	204.049606
695.377197	81.508377
696.380066	66.050003
702.42157	2130.688965
703.426208	1433.420044
704.426331	369.040588
705.432312	79.071564
712.406006	183.035904
713.409912	122.264198
730.41748	20718.730469
731.420593	13597.089844
732.422852	4053.875
733.426392	751.111511
734.409424	78.969879
END IONS

BEGIN IONS
PEPMASS=567.0
CHARGE=0
MSLEVEL=2
SOURCE_INSTRUMENT=LC-ESI-Hybrid FT
FILENAME=20120412_PAVL_FT_JamaicamideA_MH_567_qb.1.1..mgf
SEQ=*..*
IONMODE=Positive
ORGANISM=GNPS-LIBRARY
NAME=Jamaicamide A M+H
PI=Gerwick
DATACOLLECTOR=PAVL
SMILES=CO\C(CCNC(=O)CC\C=C\C(C)CC\C(CCCC#CBr)=C\Cl)=C\C(=O)N1C(C)C=CC1=O
INCHI=InChI=1S/C27H36BrClN2O4/c1-21(12-14-23(20-29)10-5-4-8-17-28)9-6-7-11-25(32)30-18-16-24(35-3)19-27(34)31-22(2)13-15-26(31)33/h6,9,13,15,19-22H,4-5,7,10-12,14,16,18H2,1-3H3,(H,30,32)/b9-6+,23-20+,24-19+
INCHIAUX=NAIKIJSSBJHCBL-IPUGVWFUSA-N
PUBMED=N/A
SUBMITUSER=mwang87
LIBRARYQUALITY=1
SPECTRUMID=CCMSLIB00000001564
SCANS=1
164.433075	25.406706
165.365402	38.21566
166.352509	41.744816
167.362961	108.533333
169.15625	9.057581
170.410355	19.623585
171.218689	11.61718
173.445206	45.900597
175.145828	31.026367
176.3078	208.608032
178.251831	12.231054
179.400452	62.359455
180.492599	65.554291
182.254883	309.285767
183.338196	94.827652
184.751984	81.990181
185.356689	355.547607
186.253876	97.810493
192.381302	21.315945
193.183319	35.945251
194.313232	24.826012
195.403702	24.532873
196.239258	107.468178
198.127594	28.030195
199.345337	457.808441
200.381744	10.5216
201.623993	14.440886
208.177307	11875.482422
209.390747	86.287598
210.054367	5.331022
218.542099	42.873497
219.249451	49.044624
220.121338	32.061611
225.330139	11.459141
227.343689	1130.352295
228.230438	57.365917
236.389526	208.167175
244.424286	35.821304
245.413757	31.146164
249.377472	33.693169
250.058014	20.443092
251.09436	95.06221
253.173553	15.23286
258.107483	19.836454
260.701721	18.169538
263.408936	85.497314
264.403992	47.934715
265.338318	189.177048
266.567963	18.250519
276.257874	25.773119
279.401733	36.847607
289.050537	107.453529
292.100464	16.872631
306.150879	18.542564
307.227875	500.226685
318.238281	10.400407
322.458984	31.106724
325.290894	10.444716
326.283417	86.132492
333.230011	14.279095
342.922089	22.172716
349.147156	15.331367
354.1922	226.3116
360.12439	463.857666
384.215698	47.498489
386.130188	30.800871
391.080261	9.425693
402.252594	136.616119
403.4664	10.875185
416.226776	217.440979
419.411621	26.165899
434.228668	2199.260742
438.119202	429.838196
439.792542	16.963076
451.055634	13.717428
454.550873	43.001934
470.074615	75639.554688
471.175385	19.571943
481.344421	54.831154
484.62146	20.491058
499.0578	423.6539
506.322205	25.882664
531.212646	72.764557
535.103638	1998.497437
568.465576	44.703667
END IONS

BEGIN IONS
PEPMASS=589.0
CHARGE=0
MSLEVEL=2
SOURCE_INSTRUMENT=LC-ESI-Hybrid FT
FILENAME=20120412_PAVL_FT_JamaicamideA_MNa_589_qb.1.1..mgf
SEQ=*..*
IONMODE=Positive
ORGANISM=GNPS-LIBRARY
NAME=Jamaicamide A M+Na
PI=Gerwick
DATACOLLECTOR=PAVL
SMILES=CO\C(CCNC(=O)CC\C=C\C(C)CC\C(CCCC#CBr)=C\Cl)=C\C(=O)N1C(C)C=CC1=O
INCHI=InChI=1S/C27H36BrClN2O4/c1-21(12-14-23(20-29)10-5-4-8-17-28)9-6-7-11-25(32)30-18-16-24(35-3)19-27(34)31-22(2)13-15-26(31)33/h6,9,13,15,19-22H,4-5,7,10-12,14,16,18H2,1-3H3,(H,30,32)/b9-6+,23-20+,24-19+
INCHIAUX=NAIKIJSSBJHCBL-IPUGVWFUSA-N
PUBMED=N/A
SUBMITUSER=mwang87
LIBRARYQUALITY=1
SPECTRUMID=CCMSLIB00000001565
SCANS=1
166.342621	76.370155
167.424789	15.355239
168.230042	6.643045
169.385788	37.154655
171.35498	48.067215
173.143219	19.301447
175.282654	21.189577
176.521194	43.791344
177.332611	7.236108
178.143753	16.489939
179.366455	14.552748
180.320587	51.601215
182.204346	1000.850403
183.465317	31.061026
184.57547	58.329292
185.319397	49.933037
186.889374	35.237457
187.918152	38.873959
189.322647	25.119717
190.314209	64.606705
191.267151	11.906948
192.537354	9.352407
193.242645	21.704134
195.049225	15.91367
196.564377	28.976564
197.179382	110.931541
199.111526	102.859985
200.036423	25.699671
201.798584	45.213913
202.466705	41.928726
205.34256	43.179832
206.38588	53.022923
207.803253	83.645241
208.435455	97.181236
209.089249	69.926735
209.862152	20.637409
211.592865	5.306787
213.005081	82.355637
213.693176	25.648283
214.458496	9.710752
215.89888	64.805206
218.100342	56.322666
219.100983	14.477915
220.829529	46.722092
222.389923	9.217295
223.361176	29.270203
224.331787	26.604485
227.354095	72.20549
228.435791	292.158783
229.448257	370.618378
230.307419	769.017273
231.267426	127.891838
232.235077	87.823074
233.007416	62.005714
234.071594	20.310226
236.09082	115.339432
236.866608	57.308662
237.829865	45.387917
239.989197	23.370607
240.799377	24.672173
242.450684	39.829269
243.222565	9.696729
244.236313	54.552155
245.370377	1520.637085
246.320679	94.835098
248.087738	142.434464
248.851807	7.826162
249.542816	13.096621
250.513367	19.182508
251.618927	50.196602
252.372253	143.86264
253.975128	64.722755
254.732086	21.545313
255.624634	102.657486
256.402588	60.453789
257.209991	68.777664
258.148376	337.894867
258.80661	10.432741
260.269379	46.403408
263.019684	648.437378
264.223267	198.875244
265.287201	196.736511
266.348511	101.510361
267.345551	21.256716
268.341431	34.517387
269.049377	12.797359
270.284149	205.12233
271.262085	42.651264
272.119781	73.229752
273.223694	186.082489
274.026581	14.455862
275.770874	52.985428
277.112305	81.248779
278.393372	38.371826
279.219177	37.152218
280.24115	31.177015
281.543701	21.047798
282.256714	63.91497
283.412262	23.385397
284.360016	69.754066
285.252441	131.444077
286.209106	166.511063
286.893311	122.531418
288.349976	72.57798
289.140991	9.863375
291.99292	44.783108
293.679504	65.304955
294.408295	20.040833
295.050232	11.379594
296.145691	47.690155
297.106049	51.758163
297.83902	10.682024
299.311401	41.204391
300.28656	184.875031
300.975433	81.329292
301.874939	24.843361
302.960815	32.456894
303.988159	236.704956
304.914612	109.412827
306.300812	29.305523
307.504517	88.327789
309.196289	136.685608
310.144714	33.105473
311.276062	121.014992
312.24408	83.41024
313.32959	2.661926
316.786255	38.01442
318.278412	111.472763
319.147278	27.643192
321.205505	831.595459
322.135193	43.694115
323.532196	9.094621
325.656708	80.05217
326.722229	170.618286
327.360229	22.601761
328.241333	69.221512
329.317688	39.825104
330.353943	87.034554
331.339844	30.114765
332.551727	159.837982
333.381897	4.55812
334.941956	29.260445
336.054993	26.620975
337.313782	55.705059
338.047913	12.163295
339.118591	7.933251
341.352844	74.939728
342.302917	58.307274
343.387177	14.267729
344.51123	80.953697
345.554718	13.292299
346.328949	87.748726
347.012817	49.321491
348.815887	619.309204
350.119202	163.163254
350.772308	50.009491
351.447235	9.451317
352.164429	18.599848
353.502075	54.560295
354.314636	10.175957
355.345947	193.349899
356.588989	71.675034
357.678253	111.1101
358.573669	81.988922
359.544922	59.084915
360.410522	109.631805
361.460144	64.009598
362.230835	96.174812
363.295166	97.060287
364.722168	129.189713
365.339355	113.527275
367.167542	86.961349
367.823242	137.740051
369.155212	300.271667
370.182831	381.279236
374.319702	5.096564
375.331024	90.055573
376.194427	790.042358
377.247284	49.660721
378.400146	91.255051
379.123108	23.894135
380.490234	20.7318
382.085205	455.838013
383.092041	55.003586
385.047791	31.440834
386.189514	17.928391
387.223145	41.144558
388.612061	98.991226
389.523254	269.23703
390.29187	99.459671
391.745728	84.649994
392.549194	151.604202
393.260803	104.890572
394.175659	48.923843
395.09668	4.720861
396.462189	166.972382
397.524475	40.881416
398.250458	30.717283
400.155975	78.072182
402.427521	77.476234
403.490723	68.968407
404.795868	78.333076
406.072296	1953.424927
407.08606	690.385315
407.836823	2789.578369
408.762329	951.569946
409.660553	215.6763
410.413208	46.286324
412.18927	67.308121
414.560486	8.285139
416.219147	3.725559
418.101746	23.082287
419.348694	70.265579
420.904602	52.199272
421.837738	197.019852
423.106079	69.415695
424.353577	181.943054
425.143097	890.221252
426.194397	32.900997
428.231812	26.772108
429.219269	61.898281
430.146637	55.445095
431.043121	81.624382
433.404938	10.999189
434.219482	4.804832
435.151367	24.363724
436.245026	23.600327
437.286102	111.926361
438.637604	14.233293
440.726379	168.653229
441.382812	239.682037
442.724365	69.77108
443.48233	72.851418
444.211151	71.534561
445.653931	24.577599
447.178802	5.046808
448.073669	8.468437
451.378571	6.932848
453.05484	25.09684
454.186005	35.216805
455.904205	190.789307
457.171295	39.467834
459.005035	198.287415
460.035736	185.835815
461.204193	20.192394
462.338623	111.386932
463.268402	67.955482
465.357178	54.392704
466.384796	46.591007
467.212219	91.096375
468.108917	20.207161
469.206787	7.312741
470.211273	221.101913
471.168335	571.088379
471.907196	115.867744
473.277191	4660.094727
474.176117	290.83136
475.392303	188.131866
476.869293	107.393578
477.888214	117.209488
478.686127	93.071625
480.057983	92.152786
480.97641	363.011017
481.83905	144.330246
483.069336	58.958805
484.066223	29.678326
488.897949	201.019363
489.720886	213.749664
490.359467	33.020283
492.079498	9896.401367
493.134094	301.861511
494.182556	9.295054
495.348328	22.603973
497.215698	10.238031
498.938019	68.740433
501.075134	21.687334
503.019592	37.821575
505.480225	33.740734
506.464142	111.860252
507.621979	211.222229
508.496674	224.072571
509.156891	1882.804321
510.089691	588.394653
511.043732	131.860107
512.132385	117.423904
513.156494	90.019577
514.095886	17.130051
520.77832	165.878571
521.614746	165.953293
522.445557	144.433517
523.356079	37.204861
525.259033	19.631687
526.923706	42.350735
528.36084	506.307312
529.451782	2176.212402
530.34314	659.607788
531.294189	135.96579
533.305908	21.177227
539.634949	1294.151001
540.394775	983.328308
541.230591	359.708588
542.311951	27.398666
545.128174	1577.7771
546.309937	21.025642
547.252991	329.946075
548.083374	138.78418
549.003418	147.470032
549.720947	65.153816
553.086426	2513.370117
554.155518	76.661781
557.180542	2085.780273
558.167419	111.566925
560.350708	18.487003
561.354553	27.168098
562.122009	30.516479
567.091675	14.76043
569.478149	323.005219
570.301636	1111.422974
571.197388	317.101562
572.067566	252.734009
573.014832	273.861664
573.665527	61.069538
575.160156	179.747406
576.134399	39.091087
577.215576	61.763496
579.135376	108.536697
579.867371	24.019403
606.782349	24.008984
607.496643	108.117332
608.19812	60.629627
609.057495	24.692833
611.191467	49.137764
617.148438	2.878364
627.257202	6.326661
640.713074	8.491068
641.891357	13.037295
643.096924	95.026733
644.226135	8.898436
645.220337	64.323044
645.986572	31.940084
646.996521	8.396528
672.196899	31.994038
683.200317	7.697946
687.101562	50.68969
689.171265	60.672638
690.03479	109.757393
690.843994	12.430849
716.133545	20.948364
731.422363	12.291744
742.064575	7.744676
743.94165	16.505833
745.067627	10.485885
763.039185	11.170749
END IONS

BEGIN IONS
PEPMASS=752.399
CHARGE=1
MSLEVEL=2
SOURCE_INSTRUMENT=LC-ESI-qTof
FILENAME=A5_1.mgf
SEQ=*..*
IONMODE=Positive
ORGANISM=GNPS-LIBRARY
NAME=Exumolide A M+Na
PI=Fenical-Jensen-Moore
DATACOLLECTOR=Max
SMILES=CC(C)C[C@@H]1OC(=O)[C@@H]2CCCN2C(=O)[C@H](CC2=CC=CC=C2)NC(=O)[C@H](CC2=CC=CC=C2)NC(=O)[C@H](CC(C)C)N(C)C(=O)[C@@H]2CCCN2C1=O
INCHI=InChI=1S/C41H55N5O7/c1-26(2)22-34-37(48)42-30(24-28-14-8-6-9-15-28)36(47)43-31(25-29-16-10-7-11-17-29)38(49)46-21-13-19-33(46)41(52)53-35(23-27(3)4)40(51)45-20-12-18-32(45)39(50)44(34)5/h6-11,14-17,26-27,30-35H,12-13,18-25H2,1-5H3,(H,42,48)(H,43,47)/t30-,31-,32-,33-,34-,35-/m0/s1
INCHIAUX=GWGKNTICBPKKKW-LBBUGJAGSA-N
PUBMED=N/A
SUBMITUSER=mwang87
LIBRARYQUALITY=1
SPECTRUMID=CCMSLIB00000001566
SCANS=1
100.111389	41.669121
136.035995	29.488291
138.051315	173.367004
142.060745	44.168369
146.056564	67.466057
151.083572	22.558649
166.121887	400.029785
167.123413	50.385799
188.066895	195.070404
188.098709	103.9534
189.069122	24.79224
189.109818	32.417191
190.116531	24.310961
193.056427	29.93022
194.116287	336.07251
195.120514	38.67477
198.051651	67.508217
216.098724	174.172806
217.107941	35.707008
218.134857	25.41264
219.146454	166.698502
220.148361	28.475651
234.109482	1101.921021
235.111816	152.954407
236.119919	25.1098
240.133789	67.739632
241.134918	25.390169
242.076767	25.312759
244.14061	54.169571
245.129822	22.404881
246.15361	22.80011
247.140625	283.410309
248.142166	67.958961
252.117981	33.253311
264.168701	21.295521
265.152557	44.32497
266.112	30.711109
273.156891	184.210297
274.148376	37.716331
285.120117	117.601097
286.119965	31.00894
295.137299	28.66363
297.154022	37.56538
298.153656	27.105221
299.115448	67.370979
299.209778	380.441986
300.211578	89.268784
303.164795	26.455271
307.138306	28.3403
310.151642	72.939949
315.202942	343.754608
316.204865	79.59832
317.215118	39.187099
318.176453	22.88114
321.213379	46.68288
323.170898	21.359159
335.144928	142.702499
336.161957	27.797171
340.125275	66.891602
341.140625	35.268959
342.214264	264.892609
343.199982	829.526184
344.203003	173.593704
345.119812	65.595032
345.200256	33.90097
348.198975	21.08691
349.177704	48.96822
360.225494	251.324493
361.212067	322.940308
362.209442	135.023895
363.208221	31.35808
364.192261	86.875717
365.171082	41.090271
366.214783	232.6763
367.21109	51.896011
378.232056	31.187531
381.181213	21.65148
386.18869	26.531891
387.221771	33.010948
388.21167	26.165199
389.14682	110.304802
393.227081	27.03352
394.211151	88.480988
407.218628	21.739929
410.203613	40.21608
411.232635	27.42234
412.220734	32.915451
414.175446	35.815399
416.230164	139.416199
417.229492	34.681129
418.210846	57.46125
419.216339	22.844879
420.22467	260.888611
421.22702	95.367012
422.208435	75.777977
423.216309	30.304569
430.266632	64.680733
431.271393	24.535549
432.189545	107.338501
433.193085	42.25111
438.197083	91.086853
442.176697	165.671707
443.182556	53.50174
444.246399	33.939281
446.27478	60.474571
447.276398	22.74865
448.252502	23.760401
457.274994	48.17197
458.169098	24.779301
458.266815	51.89801
462.271912	4129.175781
462.469788	48.990639
463.274994	1239.85498
464.281281	312.649811
465.286438	63.096291
468.278534	34.230999
475.286896	61.774368
476.286346	21.599199
477.244293	51.804249
478.264648	77.450623
479.261963	25.252131
480.283142	256.591309
481.287018	81.592979
482.244873	33.77367
485.272339	32.896969
486.198151	253.258408
487.202179	72.123734
488.204742	22.90358
489.282379	98.734627
490.270294	144.225403
491.276062	35.491852
492.268921	21.275089
495.272949	27.226999
505.241608	29.380199
506.227692	34.305408
507.293854	435.366302
508.278687	1835.858032
508.48407	24.889879
509.280457	744.301514
510.280884	137.653702
511.271149	73.393051
512.263184	27.936899
513.282227	697.244385
514.286133	250.321503
515.292358	90.312431
516.299316	25.07073
519.291748	113.300003
520.297485	49.889252
528.244507	42.290611
531.295959	35.885151
533.342102	21.68763
534.293335	153.751801
535.29126	97.436234
536.291626	25.311159
541.277283	74.869377
542.282349	25.625931
557.269287	58.818119
558.273132	26.34914
559.287842	244.750198
560.290955	102.878998
561.325317	26.74609
562.230896	24.387039
567.294434	374.218994
568.29541	166.044403
569.296204	47.875309
570.29657	22.883739
574.293579	26.65568
575.319519	147.677597
576.325012	53.624229
577.336426	669.008911
578.338257	235.225098
579.33844	51.769779
585.270325	23.63607
590.293152	56.555408
591.310364	28.93047
593.336792	48.405201
594.342957	25.626419
604.347107	149.979599
605.341003	86.634819
606.340515	36.008331
609.340454	2395.699951
609.56604	28.600809
610.344177	1071.312988
611.350891	309.433014
612.353699	100.518097
618.293213	119.707802
619.290649	52.334
625.300781	26.152081
626.316772	21.686359
627.350891	560.263123
628.353271	289.240112
629.356873	65.825081
633.352539	60.728741
637.342712	21.722191
638.335449	25.80102
639.348511	35.953972
653.294128	42.588261
654.321533	89.481651
655.346313	1422.004028
656.348572	763.819214
657.350525	174.125198
658.356018	40.209782
680.4104	35.857552
708.408813	264.782715
709.41333	156.790695
710.418152	33.47665
724.404175	2439.408936
725.407227	1388.883057
726.41095	298.216705
727.412109	54.471088
752.399353	20734.689453
753.402771	15152.120117
754.009216	22.544479
754.405029	3988.797119
754.654297	50.464489
754.752136	26.5294
755.408203	792.969971
756.405029	65.300102
END IONS

BEGIN IONS
PEPMASS=491.0
CHARGE=0
MSLEVEL=2
SOURCE_INSTRUMENT=LC-ESI-qTof
FILENAME=20120412_PAVL_FT_JamaicamideB_MCl37H_491_qb.1.1..mgf
SEQ=*..*
IONMODE=Positive
ORGANISM=GNPS-LIBRARY
NAME=Jamaicamide B M+H
PI=Gerwick
DATACOLLECTOR=PAVL
SMILES=C[C@H]1C=CC(=O)N1C(=O)/C=C(\CCNC(=O)CC/C=C/C(C)CC/C(=C/Cl)/CCCC#C)/OC
INCHI=InChI=1S/C27H37ClN2O4/c1-5-6-7-11-23(20-28)15-13-21(2)10-8-9-12-25(31)29-18-17-24(34-4)19-27(33)30-22(3)14-16-26(30)32/h1,8,10,14,16,19-22H,6-7,9,11-13,15,17-18H2,2-4H3,(H,29,31)/b10-8+,23-20+,24-19+/t21?,22-/m0/s1
INCHIAUX=N/A
PUBMED=N/A
SUBMITUSER=mwang87
LIBRARYQUALITY=1
SPECTRUMID=CCMSLIB00000001567
SCANS=1
145.282806	9.979805
146.257614	3.896016
148.669495	5.513045
152.304504	6.915212
154.340927	14.544324
155.414764	5.037907
156.296783	11.258395
157.376984	11.86809
159.319626	12.636601
160.388123	4.364921
161.406006	6.16605
166.20668	18.201256
168.405594	7.330244
169.326172	14.881641
170.348602	41.556053
171.137573	3.33933
173.230576	60.956322
174.434662	8.616311
176.262939	21.426773
177.330887	4.366053
179.266266	2.01231
182.06781	25.092812
183.22374	17.185589
184.12915	18.378017
186.682648	34.882744
187.45343	41.922676
188.331879	71.477921
189.108215	11.072291
191.50296	3.973431
192.374435	19.883825
193.477386	6.035121
196.266022	55.877911
197.51207	8.27159
202.176147	6.896284
208.113312	1401.664062
209.191757	766.904236
210.38121	23.56102
211.273895	14.011215
212.37204	61.006527
223.606476	19.929522
229.295685	51.375389
230.322784	82.840881
232.394501	9.200441
236.12825	13.041785
237.079681	2.836783
238.277466	6.25455
240.355927	6.277142
246.346832	23.922031
247.115173	3.165335
251.133667	10.638866
257.171295	4.605002
258.430054	11.518377
259.112518	11.064453
265.598694	18.013494
266.408691	35.934544
271.246582	7.895988
282.255127	128.110748
283.319214	112.656029
284.342499	166.877213
289.000732	9.587029
294.350098	18.280552
297.182983	5.680797
306.36554	6.141528
307.297913	5.852228
314.344421	2.21946
324.121368	7.474299
325.429993	4.436491
338.232666	37.829025
339.46701	23.828106
343.190643	4.12966
348.451019	2.959088
356.44046	87.23642
357.312592	134.806778
360.374573	2.971621
361.18219	44.453407
362.301636	12.156452
378.153625	3.766745
392.356018	2180.280029
393.188446	6531.459961
394.137756	576.571411
394.836823	3.433409
422.315918	27.167709
429.232422	17.45484
441.642487	16.455946
453.908264	56.060307
456.991516	4.599006
458.237976	323.420624
461.18866	16.040701
462.221191	39.257931
471.309998	12.401364
550.326782	18.655149
END IONS

BEGIN IONS
PEPMASS=860.584
CHARGE=1
MSLEVEL=2
SOURCE_INSTRUMENT=LC-ESI-qTof
FILENAME=A6.mgf
SEQ=*..*
IONMODE=Positive
ORGANISM=GNPS-LIBRARY
NAME=Halovir B M+Na
PI=Fenical-Jensen-Moore
DATACOLLECTOR=Max
SMILES=CCCCCCCCCCCCCC(=O)NC(C)(C)C(=O)N1C[C@H](O)C[C@H]1C(=O)N[C@@H](CC(C)C)C(=O)N[C@@H](C)C(=O)N[C@@H](CCC(N)=O)C(=O)N[C@H](CO)CC(C)C
INCHI=InChI=1S/C43H79N7O9/c1-9-10-11-12-13-14-15-16-17-18-19-20-37(54)49-43(7,8)42(59)50-26-32(52)25-35(50)41(58)48-34(24-29(4)5)40(57)45-30(6)38(55)47-33(21-22-36(44)53)39(56)46-31(27-51)23-28(2)3/h28-35,51-52H,9-27H2,1-8H3,(H2,44,53)(H,45,57)(H,46,56)(H,47,55)(H,48,58)(H,49,54)/t30-,31-,32+,33-,34-,35-/m0/s1
INCHIAUX=FFCLYSVFZQXUHI-XUVLUQBSSA-N
PUBMED=N/A
SUBMITUSER=mwang87
LIBRARYQUALITY=1
SPECTRUMID=CCMSLIB00000001568
SCANS=1
189.154053	21.0
196.664078	11.02778
244.083145	11.125
264.33548	17.57143
273.950623	11.06618
296.251495	46.23547
296.970856	15.55682
298.685242	11.075
304.453705	10.45
337.742828	15.5
377.248322	16.799999
382.042847	15.10227
401.17746	19.11364
431.321838	24.111839
444.237915	24.339279
450.249939	10.28409
485.088806	95.037651
508.732849	10.125
516.272583	13.04167
517.36969	66.328949
517.7995	21.066179
559.738708	34.349998
570.855347	50.235291
580.178467	10.00735
587.411682	209.313599
588.418579	73.041656
607.314453	12.11111
615.407654	38.69397
628.583679	23.28125
628.624146	16.375
633.424194	172.291702
634.438538	25.009609
635.700256	14.5625
660.371094	46.24662
716.459229	130.778
717.502197	10.01136
719.467224	11.45
729.835999	21.32143
744.457092	57.67857
745.444763	35.349998
748.859375	86.532898
760.248535	24.02083
761.476868	216.25
762.485107	192.324997
763.411987	15.47115
763.478821	55.458328
763.808655	16.049999
764.985291	10.00735
815.255127	10.03125
842.590515	22.5
859.613098	57.080132
859.965637	75.052963
860.5802	292.85321
861.316956	10.125
861.585144	303.562012
861.757812	17.125
862.450623	13.03571
862.599731	114.573402
862.738159	13.03125
863.605103	39.56818
868.044617	14.16071
1034.643799	13.00595
1071.402222	10.34722
1098.327026	15.00833
1108.854858	11.28409
1137.338257	10.125
1414.101685	10.06618
1431.022217	10.47115
END IONS

BEGIN IONS
PEPMASS=489.0
CHARGE=0
MSLEVEL=2
SOURCE_INSTRUMENT=LC-ESI-Hybrid FT
FILENAME=20120412_PAVL_FT_JamaicamideB_MH_489_qb.1.1..mgf
SEQ=*..*
IONMODE=Positive
ORGANISM=GNPS-LIBRARY
NAME=Jamaicamide B M+H
PI=Gerwick
DATACOLLECTOR=PAVL
SMILES=CO\C(CCNC(=O)CC\C=C\C(C)CC\C(CCCC#C)=C\Cl)=C\C(=O)N1C(C)C=CC1=O
INCHI=InChI=1S/C27H37ClN2O4/c1-5-6-7-11-23(20-28)15-13-21(2)10-8-9-12-25(31)29-18-17-24(34-4)19-27(33)30-22(3)14-16-26(30)32/h1,8,10,14,16,19-22H,6-7,9,11-13,15,17-18H2,2-4H3,(H,29,31)/b10-8+,23-20+,24-19+
INCHIAUX=KZVHAGNFWJIOMX-GDKFLGFMSA-N
PUBMED=N/A
SUBMITUSER=mwang87
LIBRARYQUALITY=1
SPECTRUMID=CCMSLIB00000001569
SCANS=1
141.324982	22.637043
142.505798	19.382469
143.263153	32.927765
145.290665	108.848976
147.341309	90.374718
148.448929	7.475437
149.61496	6.241545
152.273895	20.44182
154.549286	23.381554
155.284256	237.792252
155.842773	17.093384
157.305771	37.648506
159.289337	150.522766
161.399536	56.222622
163.33493	47.566864
164.405182	38.525677
166.403183	191.986969
168.290588	51.082924
169.348419	99.794159
171.370605	102.477203
172.297302	4.255439
173.268005	164.802414
175.291107	40.757927
176.317322	343.380066
176.996902	26.913935
178.172058	3.980847
179.231674	7.098779
180.369629	353.690369
182.29068	1309.703369
183.30986	223.766342
185.391281	83.052811
187.360672	752.394897
189.373062	30.694756
191.233643	27.953199
192.04895	122.294388
192.873734	38.903015
196.358109	319.34967
200.585571	41.931973
201.367172	416.166809
202.063889	14.357112
204.451477	14.17974
206.060471	5.321444
208.143951	22829.136719
211.259811	746.110229
214.273315	30.560249
216.174622	22.953556
218.306458	67.939575
220.184448	35.984711
224.110016	47.384632
227.226913	17.618563
229.291229	2677.691895
230.343597	42.33062
232.215408	180.355957
233.521439	14.870378
235.051346	10.859208
235.668793	23.686028
236.30101	1299.055908
237.206879	20.961317
244.339706	110.839012
246.255859	32.007977
247.293976	41.504543
247.982605	13.141294
249.325989	8.973491
250.210373	69.556038
252.196457	43.309723
258.270294	163.749603
258.856384	57.07412
259.909424	25.993105
260.555054	6.943769
262.769379	7.023426
264.249084	29.902344
265.260681	309.183136
268.489471	9.098558
273.484253	44.741035
276.273254	11.630646
279.376892	4.17621
280.525909	12.095366
281.692688	51.072739
282.269623	451.011719
284.181519	7.013667
290.513336	4.540817
294.335327	148.862946
296.120941	9.094273
298.50415	10.365314
306.628357	11.886882
307.549835	9.764174
308.324432	74.373413
310.377441	41.994225
313.289429	41.876076
316.52124	17.762108
322.660461	6.049469
324.315338	340.884521
326.302673	84.067116
327.262695	23.34808
331.293091	9.535436
332.988586	5.484738
337.77124	37.478504
338.353546	534.021362
339.109192	30.942984
342.365234	18.972939
356.302032	3425.88501
360.167786	532.618774
362.158539	161.666656
369.216583	23.228233
374.246185	84.73938
375.181183	43.691303
385.635223	7.673034
390.015442	3.872395
392.15155	103564.984375
393.084442	117.970901
421.366028	727.653687
428.350952	44.934822
440.123352	31.263824
453.289429	279.484161
457.212891	2940.702637
460.216431	54.159866
470.933868	14.200234
472.364655	26.166765
END IONS

BEGIN IONS
PEPMASS=866.633
CHARGE=1
MSLEVEL=2
SOURCE_INSTRUMENT=LC-ESI-qTof
FILENAME=A7.mgf
SEQ=*..*
IONMODE=Positive
ORGANISM=GNPS-LIBRARY
NAME=Halovir A M+H
PI=Fenical-Jensen-Moore
DATACOLLECTOR=Max
SMILES=CCCCCCCCCCCCCC(=O)NC(C)(C)C(=O)N1C[C@H](O)C[C@H]1C(=O)NC(CC(C)C)C(=O)N[C@@H](C(C)C)C(=O)N[C@@H](CCC(N)=O)C(=O)N[C@H](CO)CC(C)C
INCHI=InChI=1S/C45H83N7O9/c1-10-11-12-13-14-15-16-17-18-19-20-21-38(56)51-45(8,9)44(61)52-27-33(54)26-36(52)42(59)49-35(25-30(4)5)41(58)50-39(31(6)7)43(60)48-34(22-23-37(46)55)40(57)47-32(28-53)24-29(2)3/h29-36,39,53-54H,10-28H2,1-9H3,(H2,46,55)(H,47,57)(H,48,60)(H,49,59)(H,50,58)(H,51,56)/t32-,33+,34-,35?,36-,39-/m0/s1
INCHIAUX=GRJSOZDXIUZXEW-PFTKNCRBSA-N
PUBMED=N/A
SUBMITUSER=mwang87
LIBRARYQUALITY=1
SPECTRUMID=CCMSLIB00000001570
SCANS=1
100.112411	11.00402
101.070702	35.760559
117.101784	33.553989
118.115067	11.00521
127.082939	14.6301
128.106766	34.362831
129.115784	13.5
130.048706	33.43153
147.074997	139.311996
148.074661	17.290621
199.141861	662.190674
199.273071	10.1369
200.146164	115.082497
201.147461	26.76012
209.164017	11.50092
210.158142	161.265396
211.145203	257.849792
212.147537	34.139999
213.156387	12.52301
221.133331	10.13001
227.137863	798.226074
227.2798	13.535
228.16301	199.641098
229.156815	85.00174
230.158691	36.655621
231.156815	11.43269
238.149902	11.69504
246.143494	57.421749
246.175476	38.266441
247.14386	11.80178
268.191895	10.68285
268.262787	16.958019
296.254547	101.370003
297.254639	30.05862
298.213715	15.38095
309.222473	11.91051
310.208435	44.40139
326.205414	241.026093
327.235535	252.539597
328.241882	86.472443
329.242767	13.65282
341.21756	16.42902
343.223694	12.26184
345.245026	14.3149
346.250519	11.58438
369.203186	15.91645
403.248322	21.423491
409.307281	255.126404
410.307739	123.893204
411.302917	10.67188
443.788269	21.32012
454.25705	60.875469
455.255493	25.00806
472.275116	75.634697
473.282684	50.94009
476.968536	12.14234
522.388855	121.2621
523.386902	61.376831
535.3526	15.05672
537.349792	10.97266
553.371643	318.962189
554.373657	187.138901
554.92749	10.41942
555.378235	54.536411
571.381165	138.697006
571.989502	12.28241
572.383423	83.986023
573.395081	25.7197
604.982544	11.65817
621.455872	72.223778
622.463928	33.016441
623.447388	15.02524
646.777161	11.87521
708.540527	10.18421
848.618958	180.916107
849.627258	187.038696
850.629639	55.683731
866.630493	620.651428
866.788818	18.20154
866.890137	11.92096
867.210388	12.27687
867.514587	10.40409
867.633423	421.478302
867.847656	14.14266
868.637146	140.450394
869.485352	15.92133
869.6427	38.071129
1112.819214	32.760422
END IONS

BEGIN IONS
PEPMASS=511.0
CHARGE=0
MSLEVEL=2
SOURCE_INSTRUMENT=LC-ESI-Hybrid FT
FILENAME=20120412_PAVL_FT_JamaicamideB_MNa_511_qb.1.1..mgf
SEQ=*..*
IONMODE=Positive
ORGANISM=GNPS-LIBRARY
NAME=Jamaicamide B M+Na
PI=Gerwick
DATACOLLECTOR=PAVL
SMILES=CO\C(CCNC(=O)CC\C=C\C(C)CC\C(CCCC#C)=C\Cl)=C\C(=O)N1C(C)C=CC1=O
INCHI=InChI=1S/C27H37ClN2O4/c1-5-6-7-11-23(20-28)15-13-21(2)10-8-9-12-25(31)29-18-17-24(34-4)19-27(33)30-22(3)14-16-26(30)32/h1,8,10,14,16,19-22H,6-7,9,11-13,15,17-18H2,2-4H3,(H,29,31)/b10-8+,23-20+,24-19+
INCHIAUX=KZVHAGNFWJIOMX-GDKFLGFMSA-N
PUBMED=N/A
SUBMITUSER=mwang87
LIBRARYQUALITY=1
SPECTRUMID=CCMSLIB00000001571
SCANS=1
149.678757	11.414951
151.150528	31.261755
161.538849	4.751319
164.399307	38.093311
166.329788	26.915779
167.138885	21.131573
169.322769	65.062454
170.052521	27.46064
171.325958	17.56636
176.37645	12.360032
177.284729	34.648163
178.176865	18.00112
181.386261	16.856337
185.034576	17.651358
188.224304	26.675917
190.182709	27.807642
195.345367	4.936754
197.278305	21.69776
197.886398	159.147705
201.368362	8.803957
202.462158	17.774817
204.39064	25.495613
205.545044	30.396738
206.592987	44.91642
211.237534	28.212223
212.373352	19.764273
216.413757	40.331337
218.21405	153.053711
222.274902	7.49466
230.178528	4343.995605
230.826752	6.826194
233.733307	37.077721
245.80806	175.773117
246.417114	641.48761
247.381439	332.022888
248.327637	73.11409
250.28421	13.36423
255.415909	23.976311
256.392578	38.091373
257.306183	9.968168
258.260132	37.116577
258.99231	23.993057
263.257812	207.474258
264.340759	40.913174
265.663147	172.931152
266.501068	203.380753
267.431152	50.3414
268.402191	50.824593
269.217255	3.364269
272.252319	72.937996
273.382507	4.799537
274.132874	28.918732
278.086792	14.203806
282.146484	12.666606
285.724121	55.227352
288.432068	13.550109
289.074158	5.633992
295.483093	5.692818
301.40686	46.153801
302.406433	29.60512
304.173706	1948.343018
304.934814	16.069189
305.623993	31.905111
308.192749	24.806318
310.979492	90.706505
311.751038	97.877525
315.641724	82.532646
316.261444	315.111755
318.274261	8.534803
320.974487	94.03817
322.01178	53.228687
324.043945	10.383373
326.02887	23.13003
330.126892	244.042953
332.153839	7.567372
334.098907	38.309708
334.876312	8.220996
337.389709	72.410973
344.678406	58.275005
346.207153	602.261108
347.33374	5646.371094
350.280334	217.910568
351.187592	86.689941
352.423309	162.389282
353.059906	38.320351
354.037384	27.22332
355.010803	12.524753
357.372864	161.293121
359.293091	85.636612
362.163361	35.361507
364.20874	54.554283
365.379822	21.708553
368.510956	1234.504883
369.376648	2611.388428
370.648956	1031.859497
374.267365	32.340988
377.072723	31.760895
378.304138	400.207092
380.106384	8.307906
382.15332	773.792419
383.211304	25.080652
384.244812	77.316605
388.344696	588.117004
390.114929	25.798609
392.339935	56.519375
394.859589	18.953575
396.199707	422.375275
397.001129	28.715687
398.107056	26.808804
399.556793	49.951027
400.263519	171.188889
401.226898	59.812103
402.335205	16.315554
403.40387	16.935436
407.212555	23.37192
414.279724	62148.765625
415.191376	33.72039
416.394562	20.846731
417.009705	14.219017
418.888519	19.954031
421.059174	49.759758
423.123932	28.770599
425.630707	60.731037
429.542419	46.196171
432.264526	169.558441
433.250397	51.521523
434.39621	61.401299
435.174652	17.543663
436.24649	67.771469
438.552887	59.404747
439.52359	40.513641
442.999603	420.085083
443.83374	212.676056
445.540375	27.989519
449.266754	18.707256
452.52713	21.270527
453.306091	44.442089
453.929596	89.036949
459.331329	196.541748
461.839508	2013.714844
462.7771	378.762024
463.5047	74.743172
466.244751	35.282547
467.414948	79.329086
468.316254	271.733887
470.036133	3.946785
471.174652	442.308838
475.336914	2116.464355
479.23761	16767.46875
481.111511	69.528168
482.09671	36.166496
483.282104	481.515045
488.949554	36.000568
491.240845	237.964737
492.32605	81.168236
493.2052	156.94577
494.420135	211.217255
495.719727	161.865372
496.578491	15.048866
501.104614	124.842506
501.82785	45.147354
528.300903	10.740017
529.192627	18.086014
531.0896	28.952562
533.377502	655.783447
565.287292	23.35677
567.338745	6.125443
574.394226	61.125252
587.651978	5.553538
588.374146	72.189438
588.982544	38.405033
629.614136	8.108251
END IONS

BEGIN IONS
PEPMASS=888.615
CHARGE=1
MSLEVEL=2
SOURCE_INSTRUMENT=LC-ESI-qTof
FILENAME=A7_1.mgf
SEQ=*..*
IONMODE=Positive
ORGANISM=GNPS-LIBRARY
NAME=Halovir A M+Na
PI=Fenical-Jensen-Moore
DATACOLLECTOR=Max
SMILES=CCCCCCCCCCCCCC(=O)NC(C)(C)C(=O)N1C[C@H](O)C[C@H]1C(=O)NC(CC(C)C)C(=O)N[C@@H](C(C)C)C(=O)N[C@@H](CCC(N)=O)C(=O)N[C@H](CO)CC(C)C
INCHI=InChI=1S/C45H83N7O9/c1-10-11-12-13-14-15-16-17-18-19-20-21-38(56)51-45(8,9)44(61)52-27-33(54)26-36(52)42(59)49-35(25-30(4)5)41(58)50-39(31(6)7)43(60)48-34(22-23-37(46)55)40(57)47-32(28-53)24-29(2)3/h29-36,39,53-54H,10-28H2,1-9H3,(H2,46,55)(H,47,57)(H,48,60)(H,49,59)(H,50,58)(H,51,56)/t32-,33+,34-,35?,36-,39-/m0/s1
INCHIAUX=GRJSOZDXIUZXEW-PFTKNCRBSA-N
PUBMED=N/A
SUBMITUSER=mwang87
LIBRARYQUALITY=1
SPECTRUMID=CCMSLIB00000001572
SCANS=1
119.082397	12.57413
154.048813	14.53068
154.905823	13.3337
222.073563	31.6467
306.176453	10.08844
335.175293	20.58602
432.29718	10.96002
448.316681	10.40909
449.303192	29.806709
449.896912	20.841869
450.312744	11.05482
471.153564	17.25149
494.262665	14.06402
516.375061	74.271248
517.379761	37.19207
518.384094	27.16786
544.380127	21.507771
545.377014	19.95455
562.382202	96.673393
563.389954	34.66082
565.385498	12.22454
579.294556	11.47283
615.443604	251.459396
616.44281	153.663498
617.119446	10.10208
617.456482	30.563721
618.426636	12.08594
642.451538	12.12287
643.439026	47.746979
644.448792	32.738739
645.432007	23.18037
660.457581	11.46726
661.452759	252.282196
662.454712	70.004807
663.458923	23.303789
725.034241	10.33424
727.52301	13.46007
738.311218	11.57341
739.582886	12.74167
744.486572	184.554306
745.489014	88.671661
745.580383	13.75947
746.508606	14.36667
747.440125	10.17424
772.474915	40.502449
773.483765	54.586441
774.469788	14.13119
789.510376	1067.871948
789.757202	12.175
790.212341	11.83631
790.512878	763.875977
790.706177	17.07025
790.939392	11.07202
791.388916	16.5
791.51947	144.960602
792.505859	30.65399
795.026733	10.5
870.589539	15.74671
871.607727	16.175489
872.036011	15.13962
883.167175	11.0366
888.613281	1504.980957
889.103516	27.205931
889.318481	14.61318
889.616272	1202.553955
890.071533	13.06124
890.333252	13.9075
890.622803	313.463013
890.978088	12.16
891.108215	15.77381
891.326904	11.7619
891.616455	60.665691
891.997314	15.98039
892.291626	11.3375
892.616882	16.500601
893.978149	10.85814
1221.675659	10.78261
END IONS

BEGIN IONS
PEPMASS=463.0
CHARGE=0
MSLEVEL=2
SOURCE_INSTRUMENT=LC-ESI-qTof
FILENAME=20121103_Jenia_Ger_Barbamide_MCl37_463_qb.1.1..mgf
SEQ=*..*
IONMODE=Positive
ORGANISM=GNPS-LIBRARY
NAME=Barbamide M+H
PI=Gerwick
DATACOLLECTOR=Jenia
SMILES=C[C@@H](C/C(=C\C(=O)N(C)[C@@H](CC1=CC=CC=C1)C2=NC=CS2)/OC)C(Cl)(Cl)Cl
INCHI=InChI=1S/C20H23Cl3N2O2S/c1-14(20(21,22)23)11-16(27-3)13-18(26)25(2)17(19-24-9-10-28-19)12-15-7-5-4-6-8-15/h4-10,13-14,17H,11-12H2,1-3H3/b16-13+/t14-,17-/m0/s1
INCHIAUX=N/A
PUBMED=N/A
SUBMITUSER=mwang87
LIBRARYQUALITY=1
SPECTRUMID=CCMSLIB00000001573
SCANS=1
133.974243	8903518.0
134.918762	155771.0
135.520325	113246.0
142.971985	232846.0
172.804749	98137.0
179.013611	219254.0
179.753235	109787.0
180.839813	217353.0
188.020874	1012745.0
189.057434	95473.0
190.159485	264863.0
206.444641	131871.0
208.824402	513034.0
217.954102	242754.0
218.770355	67138016.0
219.712646	4614239.0
220.797058	3334814.0
242.587402	582136.0
243.216736	159.0
243.892914	100524.0
244.667511	4803260.0
245.3078	392.0
274.603088	79116.0
275.59082	1754098.0
276.2453	331.0
390.305481	123858.0
424.719116	101576.0
430.889343	315857.0
END IONS

BEGIN IONS
PEPMASS=513.308
CHARGE=1
MSLEVEL=2
SOURCE_INSTRUMENT=LC-ESI-qTof
FILENAME=A9.mgf
SEQ=*..*
IONMODE=Positive
ORGANISM=GNPS-LIBRARY
NAME=Microsporin A M+H
PI=Fenical-Jensen-Moore
DATACOLLECTOR=Max
SMILES=[H][C@]12CCCCN1C(=O)[C@H](CC1=CC=CC=C1)NC(=O)[C@H](C)NC(=O)[C@H](CCCCCC(=O)CC)NC2=O
INCHI=InChI=1S/C28H40N4O5/c1-3-21(33)14-8-5-9-15-22-26(35)29-19(2)25(34)31-23(18-20-12-6-4-7-13-20)28(37)32-17-11-10-16-24(32)27(36)30-22/h4,6-7,12-13,19,22-24H,3,5,8-11,14-18H2,1-2H3,(H,29,35)(H,30,36)(H,31,34)/t19-,22-,23-,24+/m0/s1
INCHIAUX=DEUCVOIWOGPZGS-ZNEWLNCYSA-N
PUBMED=N/A
SUBMITUSER=mwang87
LIBRARYQUALITY=1
SPECTRUMID=CCMSLIB00000001574
SCANS=1
102.04789	11.25545
103.053528	292.128387
104.058701	27.476721
105.069901	53.92931
109.099442	42.334709
110.059227	12.26136
110.096779	237.754303
111.112305	54.221001
112.07579	5287.130859
112.174393	109.138496
112.199745	47.543949
112.384079	19.57045
112.408508	20.131531
112.529358	14.9451
112.599716	13.1504
112.663986	10.11932
112.721703	10.95669
112.816765	12.02273
113.079391	454.619202
113.416222	12.90909
114.078827	20.217911
115.056999	15.34187
115.865257	15.50341
117.064278	16.404221
118.066246	46.052719
119.074089	22.661831
120.080742	3229.498047
120.182686	50.484982
120.212051	24.206511
120.466064	10.29378
121.087173	368.866089
122.085693	36.70483
123.090729	13.89569
124.098946	41.593769
128.065567	13.14478
129.068237	46.636959
129.099777	10.96037
130.079819	32.205799
131.043991	15.02652
132.082916	26.512991
135.09433	11.95739
138.12764	529.237427
139.112122	473.412201
140.070831	864.376282
140.179276	17.71492
141.072906	85.758537
142.077026	15.90486
146.095184	317.837311
147.099045	53.223412
148.111679	11.17082
150.126984	30.82148
151.084885	82.126251
151.125626	18.580021
156.080063	47.47728
156.138123	3685.069092
156.225555	32.755932
156.255508	62.545521
156.286301	16.992479
156.377213	16.647499
156.661606	13.39663
156.69577	11.45597
156.910599	11.68378
157.140915	496.1586
158.097382	10.72841
158.145248	51.052109
163.08374	13.225
163.715103	12.586
164.144501	27.17173
165.101364	21.338791
166.119202	36.23967
167.102478	14.37704
168.096313	13.93324
173.097778	17.25111
174.130524	10.93397
175.114655	10.89655
180.112213	28.13028
182.153397	328.015594
183.157364	80.346169
184.133148	109.4515
185.133453	15.45471
186.127792	29.4084
187.127335	30.80917
191.116333	50.658852
192.117584	15.89268
193.11937	10.50866
201.136841	59.105068
202.141129	23.32844
209.163879	63.465481
211.106491	47.242741
212.125641	42.772419
214.120163	28.55407
215.147034	12.0483
219.129318	16.34483
222.183624	224.379196
223.185455	24.597321
227.174316	975.937317
227.314529	16.15856
228.177124	238.585907
229.132233	65.605019
229.172928	38.52684
230.132202	17.96023
231.150208	334.731812
232.151321	84.093147
233.15332	20.82547
234.182449	19.136101
237.153336	23.31262
238.163925	26.73978
239.169128	10.27662
241.127441	24.23951
242.120361	79.410851
249.194427	78.31501
250.191925	20.599331
251.209869	26.48748
255.170319	487.259308
256.173584	141.411194
257.166992	115.338303
258.169037	50.657799
259.143921	419.428009
260.147552	182.902496
266.186005	19.18236
267.206818	2292.148926
267.356934	31.36405
267.394592	13.72825
267.633209	10.26299
268.005371	10.39706
268.209564	633.714172
268.328094	13.74397
269.211395	71.713181
269.934662	12.13811
277.18927	20.02948
285.158264	46.144241
286.162628	19.39921
293.198395	10.56906
294.212006	19.24621
295.201843	1726.147949
295.359955	23.40567
295.439636	10.51705
295.519867	10.83506
295.637604	10.45887
296.204346	412.612396
297.205658	67.176453
313.151733	31.378771
314.156982	17.280149
330.183746	178.046204
331.183289	51.77084
338.246124	109.560501
339.249451	15.50395
348.226013	10.84848
350.237274	12.13457
356.230072	42.614639
360.19397	17.040609
365.253296	34.12624
366.238922	1663.947998
366.415039	19.091311
366.909668	10.81855
367.242523	406.466187
367.715729	10.98172
368.244171	88.425461
369.2435	19.114111
374.242432	55.479488
375.244537	23.505541
381.270355	10.47447
384.22879	79.653763
385.22287	32.757118
386.23175	16.74012
396.259491	25.512739
402.238342	90.822937
403.240845	64.368896
424.262238	105.213402
425.262726	29.18342
430.228363	16.78347
442.271729	52.64032
485.312775	309.927795
486.316437	148.432602
487.317657	24.773109
513.307617	301.727509
514.309631	137.668396
515.310974	42.169559
515.399841	40.380638
516.308411	14.28854
835.398438	18.9993
1418.505615	24.8981
END IONS

BEGIN IONS
PEPMASS=461.0
CHARGE=0
MSLEVEL=2
SOURCE_INSTRUMENT=LC-ESI-Ion Trap
FILENAME=20121103_Jenia_Ger_Barbamide_MH_461_qb.1.1..mgf
SEQ=*..*
IONMODE=Positive
ORGANISM=GNPS-LIBRARY
NAME=Barbamide M+H
PI=Gerwick
DATACOLLECTOR=Jenia
SMILES=CO\C(CC(C)C(Cl)(Cl)Cl)=C\C(=O)N(C)C(CC1=CC=CC=C1)C1=NC=CS1
INCHI=InChI=1S/C20H23Cl3N2O2S/c1-14(20(21,22)23)11-16(27-3)13-18(26)25(2)17(19-24-9-10-28-19)12-15-7-5-4-6-8-15/h4-10,13-14,17H,11-12H2,1-3H3/b16-13+
INCHIAUX=UGNRFJOMRFTXSQ-DTQAZKPQSA-N
PUBMED=N/A
SUBMITUSER=mwang87
LIBRARYQUALITY=1
SPECTRUMID=CCMSLIB00000001575
SCANS=1
133.944092	3844172.0
134.632446	76.0
142.687683	47917.0
170.935974	158585.0
173.106415	61483.0
178.952393	64075.0
188.098694	617251.0
188.879364	21.0
206.736328	801347.0
218.758698	27247216.0
242.73822	2930930.0
243.486237	17.0
247.337311	52012.0
273.700562	243094.0
343.821899	96578.0
425.012634	75621.0
428.471863	153934.0
429.140015	129399.0
430.152832	58318.0
END IONS

BEGIN IONS
PEPMASS=535.29
CHARGE=1
MSLEVEL=2
SOURCE_INSTRUMENT=LC-ESI-qTof
FILENAME=A9_1.mgf
SEQ=*..*
IONMODE=Positive
ORGANISM=GNPS-LIBRARY
NAME=Microsporin A M+Na
PI=Fenical-Jensen-Moore
DATACOLLECTOR=Max
SMILES=[H][C@]12CCCCN1C(=O)[C@H](CC1=CC=CC=C1)NC(=O)[C@H](C)NC(=O)[C@H](CCCCCC(=O)CC)NC2=O
INCHI=InChI=1S/C28H40N4O5/c1-3-21(33)14-8-5-9-15-22-26(35)29-19(2)25(34)31-23(18-20-12-6-4-7-13-20)28(37)32-17-11-10-16-24(32)27(36)30-22/h4,6-7,12-13,19,22-24H,3,5,8-11,14-18H2,1-2H3,(H,29,35)(H,30,36)(H,31,34)/t19-,22-,23-,24+/m0/s1
INCHIAUX=DEUCVOIWOGPZGS-ZNEWLNCYSA-N
PUBMED=N/A
SUBMITUSER=mwang87
LIBRARYQUALITY=1
SPECTRUMID=CCMSLIB00000001576
SCANS=1
106.064758	15.02685
109.983856	12.25194
112.07618	27.7197
120.079796	40.027401
135.065033	16.67802
152.065674	33.636139
160.059387	34.5896
161.068863	24.12812
173.065903	28.25033
174.016251	11.98669
175.084167	27.60166
176.090027	12.6668
178.120132	196.573898
179.10675	67.292992
188.074112	64.723991
189.044403	13.61842
189.087784	12.28926
190.075867	20.13043
191.116623	17.64966
198.051849	63.25309
199.053833	15.08503
206.116257	20.474529
208.123276	12.53301
213.099426	30.793949
214.097504	11.78835
214.123627	13.1668
224.128403	39.673882
233.126007	25.607599
234.110458	728.442017
234.251678	12.02042
235.113281	142.032104
236.112717	21.092279
241.091904	13.77824
241.132095	14.50015
248.132874	27.826
249.159576	42.980721
250.18721	15.03667
253.128799	39.596668
259.13739	60.1744
260.108795	18.426769
261.15744	14.06175
262.122162	14.27604
263.119263	15.08333
267.109985	20.5186
267.141235	14.26383
269.088928	46.928001
271.17746	22.42424
273.193512	50.70256
274.194214	14.08681
277.151825	32.502079
278.150177	22.521971
280.143219	15.2663
281.127747	87.35537
282.12796	17.612009
283.174194	21.458
287.127686	13.83058
287.171448	129.995895
288.178711	27.9662
289.189178	185.999893
290.188019	24.17614
291.188538	16.755489
294.177582	20.705111
298.154938	11.52252
299.109528	11.17773
299.172455	172.696198
300.175537	48.707829
304.200928	12.15169
305.146057	404.528107
306.149567	161.990097
309.113312	13.23157
309.162659	21.40818
310.184906	13.04432
312.16156	13.83849
313.059784	13.82654
314.178162	11.41886
315.167786	64.025467
316.196899	34.213539
317.181244	58.513649
318.188019	19.07667
320.153534	17.369049
323.168671	15.63227
324.161438	72.896667
325.169067	49.05534
327.170471	65.376343
328.185364	22.92598
332.096039	11.14525
334.208588	28.038521
335.207855	11.67218
342.213593	25.91934
343.222595	12.18817
345.193848	12.91406
351.195618	21.653681
352.178955	14.31905
353.177124	13.16757
354.170258	12.75536
354.234802	15.05272
358.207733	114.455299
359.212738	30.58
360.225464	413.55481
361.226593	118.160301
362.230103	19.920259
370.218414	13.5475
378.210571	10.81667
380.153168	12.80689
386.209717	34.88253
387.236511	38.947121
388.234467	30.68939
389.218811	16.78125
396.226624	238.085007
397.229279	88.944298
398.228973	11.58449
406.211731	40.270069
407.201477	13.45922
408.209137	14.30444
416.242249	19.046909
418.247742	22.32877
420.256744	29.9356
424.215332	34.527271
425.227875	26.443371
436.256714	169.108597
437.258026	85.16391
438.259277	12.09115
446.232574	25.250351
452.216492	310.895508
453.219666	175.665604
454.214905	48.64259
463.26355	31.037319
464.257782	28.571541
465.245026	13.19851
489.288452	22.435749
490.281403	28.225309
491.293274	24.811741
492.291656	21.630119
499.272644	24.210011
507.294891	1420.880005
507.567932	11.79647
508.296844	902.710327
508.563629	11.38093
508.906769	12.51042
509.29776	206.575195
517.281311	29.02121
518.275635	25.866751
533.046021	11.92014
535.289246	10734.389648
535.500061	134.947403
535.562256	61.616138
535.620728	53.638161
535.924011	40.064098
535.984009	39.666729
536.109924	40.607491
536.292358	5705.651855
536.502075	96.345833
536.572083	61.504631
536.736755	51.622601
536.941772	39.289188
537.082031	38.781841
537.179138	36.844139
537.295471	1359.79895
537.443359	39.69001
537.53186	38.986671
537.846741	30.581499
538.075439	29.1805
538.296692	128.458496
539.020081	11.85391
539.298828	20.41678
539.432678	13.33405
END IONS

BEGIN IONS
PEPMASS=532.0
CHARGE=0
MSLEVEL=2
SOURCE_INSTRUMENT=LC-ESI-qTof
FILENAME=20121103_Jenia_Ger_CarmaphycinB_MH_532_qb.1.1..mgf
SEQ=*..*
IONMODE=Positive
ORGANISM=GNPS-LIBRARY
NAME=Carmaphycin B M+H
PI=Gerwick
DATACOLLECTOR=Jenia
SMILES=C[C@]1(OC1)C([C@H](CC(C)C)NC([C@H](CCS(=O)(C)=O)NC([C@H](C(C)C)NC(CCCCC)=O)=O)=O)=O
INCHI=N/A
INCHIAUX=N/A
PUBMED=N/A
SUBMITUSER=mwang87
LIBRARYQUALITY=1
SPECTRUMID=CCMSLIB00000001577
SCANS=1
153.288116	163097.0
153.889313	3721899.0
154.596039	17.0
161.9823	64219.0
164.930359	221142.0
169.788574	275399.0
171.953033	340799.0
181.800903	3333268.0
182.622192	12.0
190.876221	121512.0
191.826569	165667.0
197.775787	1997434.0
200.023682	94099.0
221.039337	191946.0
233.942322	59225.0
235.65625	72626.0
248.890533	29370.0
259.077881	77068.0
260.965881	421421.0
261.772949	27918.0
271.780884	115832.0
288.796387	230216.0
299.082092	46484.0
299.907532	497199.0
300.734619	119365.0
316.880737	7985906.0
317.732666	112.0
334.87915	44526192.0
335.636047	229.0
342.81958	84412.0
360.153992	354002.0
360.770813	5533707.0
361.535461	31.0
362.968445	357568.0
363.569702	11.0
397.210022	112368.0
397.813293	5.0
433.971497	523068.0
434.758301	8.0
452.085388	179216.0
501.996033	427446.0
514.105103	4355834.0
514.901611	40.0
END IONS

BEGIN IONS
PEPMASS=1068.61
CHARGE=1
MSLEVEL=2
SOURCE_INSTRUMENT=LC-ESI-qTof
FILENAME=A10.mgf
SEQ=*..*
IONMODE=Positive
ORGANISM=GNPS-LIBRARY
NAME=unpublished peptide from CNL 643 M+H
PI=Fenical-Jensen-Moore
DATACOLLECTOR=Max
SMILES=N/A
INCHI=N/A
INCHIAUX=N/A
PUBMED=N/A
SUBMITUSER=mwang87
LIBRARYQUALITY=1
SPECTRUMID=CCMSLIB00000001578
SCANS=1
100.077621	105.002098
101.078552	50.223679
119.771523	24.28125
120.081917	1530.479004
120.291122	19.375
120.444656	25.125
120.72403	22.00379
120.863403	20.52083
121.087334	195.5728
121.12944	31.02083
128.069061	319.665497
128.280655	20.9
129.076553	26.21121
157.100388	76.175003
171.108871	138.764694
187.109192	40.5625
191.117691	140.630402
196.027618	57.210529
196.086151	56.402779
198.001419	25.111839
199.106323	3106.478027
199.235687	52.5625
199.273102	46.19104
199.34642	18.25
199.380753	25.225
199.48468	18.009609
199.525146	23.0
199.558762	23.53289
199.614227	27.405001
199.666092	20.66667
199.957077	21.25
200.105881	463.388214
200.233459	23.0
201.123718	28.183821
202.54631	32.004311
215.161774	17.625
219.124008	29.0
224.063812	39.845001
227.137634	371.877197
227.487183	21.53289
228.723221	26.0
242.142105	90.685966
245.10054	44.084461
247.138519	54.939522
248.30275	26.01923
256.131134	47.003201
265.731079	92.08654
270.150665	45.132351
278.12204	27.0
296.796356	23.4
298.1651	152.148804
299.171631	37.728451
305.772308	32.1875
309.501526	79.5
310.483582	17.027781
312.193359	1867.144043
312.362854	31.907261
312.395996	16.889709
313.195007	422.342896
313.258209	43.183819
314.187195	23.075001
314.347565	28.778851
314.394379	19.28409
314.616821	34.066669
314.803345	20.28409
315.544983	35.400002
317.882568	17.694441
318.179535	1266.520996
318.315063	22.405001
318.5	24.00658
319.184601	300.558807
319.311462	19.025
319.342163	17.595591
319.482849	18.04167
320.117493	36.96983
320.400787	28.625
326.651825	22.005951
330.915436	30.375
333.156403	34.226849
335.737091	17.9
342.967041	33.408329
343.820251	18.44643
344.016693	33.005001
345.180267	44.226849
345.48407	20.57143
345.620544	19.05921
346.076874	17.04167
346.176025	6671.280762
346.349945	107.195297
346.401764	38.07143
346.559753	48.01667
346.812256	26.322371
347.023041	27.027781
347.050079	22.375
347.178162	2943.281006
347.343292	68.25
347.454742	19.025
347.593262	17.005951
347.658234	68.555557
347.82373	30.125
347.912811	40.779411
348.183929	185.025803
348.463013	33.008339
348.966461	18.471149
349.154846	17.25
349.231903	34.645
349.290588	26.04167
349.781525	26.5
351.133026	60.336109
354.53891	27.240391
355.223907	49.14286
355.834656	18.013889
356.235199	43.030411
356.278259	26.148809
369.21167	106.470596
381.24527	32.25
383.223206	180.778397
383.970337	72.08036
384.22287	44.347221
396.251007	37.90086
397.000916	18.20833
397.242554	2438.134033
397.333618	71.0625
397.425018	36.020828
397.661621	22.44643
397.7388	38.520161
397.942383	24.322371
397.99762	46.612499
398.053375	31.22283
398.247528	1078.42395
398.343842	35.115742
398.433502	24.9
398.587677	56.760139
398.711517	21.09091
399.22995	76.199997
399.320465	20.125
400.023468	17.29167
400.90863	21.5
403.671173	20.027781
405.508942	42.90086
411.262329	45.00544
418.251099	87.050003
419.891571	46.049999
426.259033	41.125
427.231445	31.53125
431.224762	221.333298
433.210724	31.125
433.327576	55.721149
438.613525	28.799999
441.0625	23.16667
441.858765	25.0
442.586273	52.0625
442.660095	57.695648
444.997498	34.78241
445.113525	47.890629
445.243591	10320.009766
445.436157	165.171799
445.498596	58.07143
445.572235	48.164471
445.637146	49.242649
445.691345	35.0
445.836151	101.375
445.945801	71.349136
446.000244	64.625
446.048492	48.94231
446.140961	23.125
446.248688	4307.26709
446.445374	85.030403
446.500061	49.408329
446.554901	40.007351
446.708405	60.778221
446.805847	60.224998
446.853088	53.347221
446.914703	51.0947
447.04483	44.226849
447.252228	421.666687
447.400452	28.125
447.535889	26.0
447.615417	51.005951
447.809723	32.0
447.880951	48.680561
447.97998	50.244999
448.087341	17.160721
448.25708	79.570663
448.469299	38.083328
448.603333	34.05357
448.712341	17.111111
448.862762	19.66667
448.985107	39.0
449.098511	42.11364
449.93338	25.027781
449.971497	28.14286
450.138702	16.375
451.26123	45.889709
451.858887	23.125
452.135132	31.30769
452.183807	37.160709
452.245789	16.408331
452.417023	22.125
452.967834	25.560181
454.266266	483.580292
454.856995	17.56818
454.968658	25.94231
455.254059	75.568398
455.65271	19.89286
455.793518	19.57143
456.291534	46.53289
459.25827	60.25
464.12915	37.470589
464.238647	21.0
468.281494	799.142883
469.279541	305.399994
469.551819	39.0
469.614227	18.0
470.278168	21.408331
471.279449	60.032139
483.289642	43.003792
511.322693	59.17308
514.332825	65.022057
523.569092	26.009609
539.316833	1042.822021
540.13208	29.32143
540.208984	20.0
540.319763	383.929901
540.43866	23.125
540.918579	36.003792
541.076721	27.81818
541.31897	55.165539
542.916992	18.53289
543.966919	16.778851
545.281982	29.125
553.3526	21.08654
554.502869	50.004028
558.299805	234.333298
559.290405	101.003601
559.613831	17.183821
560.31134	42.36364
561.288696	21.53289
591.984192	41.852268
613.629639	27.25
615.320557	68.859703
618.693237	19.20833
622.108459	21.125
623.633118	17.008329
624.372437	1169.616943
625.368225	404.510895
625.600769	32.0
625.665588	18.625
626.390259	78.142441
626.581177	19.4
626.710327	28.0
627.310486	51.025002
627.405334	29.125
628.36615	29.444441
629.23468	21.48214
629.279663	19.322371
639.363159	27.6875
640.698608	21.225
643.375366	24.360291
651.672485	20.44643
653.796692	19.29167
657.335083	22.04891
658.354187	27.0
666.75531	18.471149
667.422119	31.6
671.373657	455.578888
671.543335	19.111111
672.385681	353.158386
672.541504	21.4
673.152283	19.25
673.377197	41.014709
675.161621	23.361111
687.405884	48.173908
714.397766	35.654411
724.996765	22.5625
735.205566	16.450001
738.851746	24.066179
740.06189	25.240391
742.409668	24.1
746.856018	18.20833
747.848022	42.473679
750.323547	26.11574
752.028076	33.055561
756.424561	2562.665039
756.585327	74.326607
756.667358	28.33333
756.741394	26.02083
756.89978	25.0
757.16394	22.450001
757.230042	71.5625
757.434265	1480.271973
757.564575	75.08654
757.694519	39.291672
757.821899	29.360291
758.1427	25.148809
758.221924	24.285721
758.280273	19.9
758.428284	392.32901
758.680054	24.16667
758.93335	23.375
759.087585	18.08654
759.166992	24.01786
759.44043	63.065788
759.597656	33.36742
760.54364	31.5
761.107544	73.708344
761.687805	21.889709
766.808594	18.680559
770.937866	24.30769
775.853943	21.148809
785.446045	37.165321
823.432068	32.242649
826.727661	44.81818
827.457886	83.280296
828.466187	51.605
829.47937	25.008329
833.94342	29.56818
834.755249	18.322371
835.890747	20.0
836.107605	25.11364
838.352783	33.022732
839.41626	24.111839
840.029907	26.25
840.31189	17.285721
841.481201	3484.644043
841.687378	46.284088
841.74408	24.0625
841.93811	44.200001
842.159302	45.009998
842.303833	87.011902
842.485291	2763.750977
842.703125	41.92046
842.803406	62.01786
842.912109	49.030411
843.059692	71.259613
843.195496	30.00658
843.279663	49.013161
843.484924	926.540222
843.598389	91.05896
843.754395	70.492348
843.873108	54.125
843.9646	25.05921
844.105652	37.480259
844.216003	32.066669
844.377319	30.125
844.474548	196.757599
844.634338	31.0
844.718262	21.05921
844.83728	22.5
845.000122	35.164471
845.088562	33.657612
845.368164	24.10227
845.675598	61.226849
845.876831	56.032139
846.257935	27.245001
846.42334	34.78241
847.101624	18.55682
847.841553	36.654411
848.610535	17.450001
849.025574	22.44022
849.830444	18.00658
850.589478	17.160721
852.755066	23.013889
854.519409	35.125
870.485291	18.00543
873.391235	16.408331
898.486572	34.013889
905.312561	32.720242
905.455505	27.005951
909.400818	35.76923
912.518188	2099.738037
912.7724	43.599998
913.113098	21.003571
913.157959	25.04167
913.338745	44.01667
913.519958	1357.906982
913.791687	23.560181
914.150574	17.92045
914.515869	544.887024
914.786926	20.0625
914.931091	25.28409
915.510132	92.26667
915.97229	28.55603
916.103149	20.347219
917.643005	25.160721
917.884705	50.25
918.600464	41.5625
920.244934	22.01136
965.212402	26.625
969.537842	18.007351
971.062439	21.00658
971.134277	17.625
971.982422	22.45455
972.680115	20.013889
973.001648	35.132351
974.929993	23.339279
975.019775	17.347219
977.307678	20.680559
978.524841	33.34914
980.723022	19.164471
983.55011	1464.359985
983.768982	20.160721
983.958435	50.59211
984.072998	30.361111
984.282043	23.20833
984.554199	1360.473999
984.838745	34.01667
985.040527	60.0
985.222473	34.360291
985.38385	26.444441
985.555664	317.557098
985.638733	71.049423
985.768921	48.01923
985.963501	32.81818
986.092529	37.92308
986.214111	42.150002
986.442993	28.28409
986.560852	210.090897
988.354492	23.03125
988.786987	21.78125
989.235046	17.0
991.132996	68.260406
998.975037	103.266502
1000.546448	20.28409
1003.34314	26.444441
1013.540527	21.33333
1021.990723	36.322369
1023.507996	49.375
1024.973389	69.367416
1027.117676	33.416672
1032.477661	26.11574
1033.46228	22.9
1034.77002	34.25
1037.917114	87.25
1037.992065	48.595589
1046.982422	33.291672
1048.563477	23.05921
1050.983398	44.55603
1051.170898	55.907261
1053.457642	62.0947
1057.208252	120.190201
1057.421265	32.0
1058.403198	44.599998
1059.363281	24.450001
1062.748047	24.25
1063.451904	19.285721
1063.860718	24.89286
1068.605225	4722.418945
1068.896606	71.408333
1068.985596	40.680561
1069.157227	18.008329
1069.224609	29.799999
1069.335938	31.72024
1069.608765	3115.581055
1069.900024	52.066669
1070.019897	45.291672
1070.101196	39.68145
1070.310303	28.796049
1070.612061	1332.727051
1070.855713	64.333344
1071.07666	28.65761
1071.189087	24.53289
1071.301025	69.89286
1071.484497	80.100609
1071.610718	283.340302
1071.744751	102.190201
1071.942139	71.08696
1072.049072	36.889709
1072.363892	40.816669
1072.642822	71.008331
1073.208374	32.135872
1073.722534	53.529411
1074.047485	23.654409
1074.397949	59.0
1075.435547	52.346149
1075.568726	17.02273
1076.192017	18.148809
1076.546021	83.384613
1077.686646	42.367649
1078.573608	17.00658
1079.481567	29.013889
1079.539185	19.183821
1082.549438	33.007351
1082.679688	25.322371
1083.71814	28.53289
1084.019653	16.5625
1094.289185	24.027781
1118.789307	18.02273
1127.687622	47.246948
1128.752075	19.14286
1134.252563	20.25
1158.21936	34.111839
1177.237305	29.10227
1232.339233	263.5
1292.201294	20.08654
1344.261475	23.0
1365.388062	54.816669
1434.247192	42.003792
1467.900635	18.125
1574.730957	18.889709
END IONS

BEGIN IONS
PEPMASS=484.0
CHARGE=0
MSLEVEL=2
SOURCE_INSTRUMENT=LC-ESI-qTof
FILENAME=20121103_Jenia_Ger_TumonoicacidH_MH_484_qb.1.1..mgf
SEQ=*..*
IONMODE=Positive
ORGANISM=GNPS-LIBRARY
NAME=Tumonoic Acid H M+H
PI=Gerwick
DATACOLLECTOR=Jenia
SMILES=CCCCCCCC[C@H](C)C(=O)N1CCC[C@H]1C(=O)O[C@H](C(C)C)C(=O)O[C@@H](C(C)C)C(=O)O
INCHI=InChI=1S/C26H45NO7/c1-7-8-9-10-11-12-14-19(6)23(28)27-16-13-15-20(27)25(31)34-22(18(4)5)26(32)33-21(17(2)3)24(29)30/h17-22H,7-16H2,1-6H3,(H,29,30)/t19-,20-,21-,22+/m0/s1
INCHIAUX=N/A
PUBMED=N/A
SUBMITUSER=mwang87
LIBRARYQUALITY=1
SPECTRUMID=CCMSLIB00000001579
SCANS=1
197.727295	167842.0
216.231201	33906.0
228.614136	15998.0
229.758545	30588.0
235.618225	8916.0
236.732361	242114.0
237.775818	3636978.0
238.587982	16.0
264.648743	116991.0
265.202209	231798.0
265.81485	25859272.0
266.580994	165.0
283.952911	123139.0
297.655518	129615.0
314.278931	16608.0
315.362366	105965.0
315.962158	4827803.0
316.883911	9.0
363.992371	44323.0
364.671753	52954.0
365.229126	331991.0
365.889465	49691648.0
366.540558	15612.0
379.174377	54445.0
380.008606	237367.0
380.56665	4.0
383.888672	736608.0
384.498688	17.0
393.759949	50731.0
424.341309	15631.0
437.029633	162509.0
437.949707	2280597.0
438.665527	21.0
464.622498	47533.0
465.210327	95093.0
465.806915	1671683.0
466.39679	31098.0
END IONS

BEGIN IONS
PEPMASS=1082.62
CHARGE=1
MSLEVEL=2
SOURCE_INSTRUMENT=LC-ESI-qTof
FILENAME=A11.mgf
SEQ=*..*
IONMODE=Positive
ORGANISM=GNPS-LIBRARY
NAME=unpublished peptide from CNL 643 M+Na
PI=Fenical-Jensen-Moore
DATACOLLECTOR=Max
SMILES=N/A
INCHI=N/A
INCHIAUX=N/A
PUBMED=N/A
SUBMITUSER=mwang87
LIBRARYQUALITY=1
SPECTRUMID=CCMSLIB00000001580
SCANS=1
100.074821	51.505619
103.053299	34.635361
120.080444	585.701599
120.182976	11.46319
121.082932	56.993469
128.069672	171.7901
129.071564	16.48263
171.110916	45.491829
191.117065	65.70153
192.119919	15.23989
199.10704	1687.095947
199.239868	26.621071
200.110367	235.020706
201.112274	25.307659
213.12178	11.58794
219.148254	36.16449
227.137558	201.157806
228.139923	36.415001
242.148636	17.249889
247.142975	50.861191
284.19519	15.72083
298.172211	33.810631
312.191132	900.681824
312.355255	13.42854
313.194275	250.059494
314.192444	29.76091
318.18042	781.187195
318.345947	12.07358
319.184143	216.842606
320.184326	15.86338
327.206421	10.9348
328.180389	10.31002
341.2146	10.73541
344.159149	15.9637
346.175415	3913.580078
346.34787	59.454418
346.392365	23.068399
347.178925	1257.244019
347.351105	22.731251
348.180359	136.261597
349.17804	14.54648
355.231171	20.07431
360.188934	16.056669
369.2435	35.593128
383.229431	135.505905
384.22934	42.83654
397.244415	1619.702026
397.425446	19.57217
398.246857	540.834412
399.248596	88.83213
411.2612	11.35315
412.255341	22.045549
417.248657	43.710751
418.250519	26.766279
426.271301	21.069599
427.270172	15.94534
431.232971	19.38875
440.282166	26.73955
445.244049	6134.333008
445.437378	85.523743
445.489319	36.15567
446.247131	2449.584961
446.438385	39.91058
446.501007	28.848579
447.249237	410.96701
448.253326	43.084751
450.272766	10.87922
451.27536	12.40803
454.263977	176.5784
455.266846	67.673317
459.257843	19.374781
460.260132	13.66389
461.239502	26.977671
468.281494	421.684906
469.282898	186.749496
470.283386	36.062222
511.323273	31.427931
512.335449	18.452391
539.318359	647.94751
540.320862	312.644287
541.323853	47.668072
553.333923	10.57887
558.292114	173.046402
559.296387	116.833702
560.292725	12.82484
638.385559	673.40863
639.389221	293.3927
640.391541	77.998734
641.386108	11.87457
643.377869	18.64398
644.384827	14.16589
671.37439	224.772705
672.379089	140.619293
673.376831	43.067211
756.428284	1228.171021
757.43158	826.585327
757.749329	10.50361
758.431824	229.942596
759.433899	44.992149
772.424561	10.29849
841.480652	2046.812012
842.483765	1492.937988
843.488342	450.235413
844.486084	86.701767
845.490173	14.39981
855.491577	23.36344
856.495361	15.60959
857.481628	22.298719
912.5177	1052.66394
913.519775	778.873474
914.52356	254.131393
915.526794	53.21928
916.515686	11.4517
928.514343	14.5879
983.555115	975.913574
983.845276	12.457
984.558167	807.492798
985.559937	269.240601
986.560425	62.260689
999.541077	11.76938
1066.59729	15.6349
1082.623779	3348.812988
1082.916504	37.346722
1083.032104	24.800631
1083.626953	2564.541016
1083.916504	42.944351
1084.628174	1035.219971
1085.067505	30.36471
1085.630127	264.203186
1086.627563	37.53022
END IONS

BEGIN IONS
PEPMASS=672.1
CHARGE=0
MSLEVEL=2
SOURCE_INSTRUMENT=LC-ESI-Ion Trap
FILENAME=20121108_Amanda_Ger_PalmyramideA_MH_672_qb.1.1..mgf
SEQ=*..*
IONMODE=Positive
ORGANISM=GNPS-LIBRARY
NAME=Palmyramide A M+H
PI=Gerwick
DATACOLLECTOR=Amanda
SMILES=[H][C@@]12CCCN1C(=O)[C@H](CC1=CC=CC=C1)OC(=O)[C@H](C)OC(=O)C(C)(C)[C@@H](CCC)OC(=O)[C@@H](NC(=O)[C@@H](C(C)C)N(C)C2=O)C(C)C
INCHI=InChI=1S/C36H53N3O9/c1-10-15-27-36(7,8)35(45)46-23(6)33(43)47-26(20-24-16-12-11-13-17-24)32(42)39-19-14-18-25(39)31(41)38(9)29(22(4)5)30(40)37-28(21(2)3)34(44)48-27/h11-13,16-17,21-23,25-29H,10,14-15,18-20H2,1-9H3,(H,37,40)/t23-,25-,26-,27+,28-,29+/m0/s1
INCHIAUX=QXWOTWUQMDHDCF-UEPNLWJJSA-N
PUBMED=N/A
SUBMITUSER=mwang87
LIBRARYQUALITY=1
SPECTRUMID=CCMSLIB00000001581
SCANS=1
199.941269	45945.0
200.487152	9.0
208.971451	29737.0
214.874619	4003.0
217.611862	14746.0
226.152466	16421.0
227.879913	374297.0
230.968491	12833.0
240.983856	1955.0
245.449905	8282.0
256.594086	5653.0
258.992188	1645.0
276.962708	3172.0
279.78894	2094.0
282.125854	4411.0
283.787964	1007.0
289.721405	1914.0
299.936401	7426.0
310.10498	4832.0
313.033691	6399.0
317.781158	29066.0
331.382263	2085.0
331.948975	173929.0
332.555542	1.0
335.77829	9267.0
340.899933	150999.0
341.913269	11866.0
343.876465	1628.0
344.731628	324201.0
345.956329	705467.0
346.663727	5.0
358.908783	22842.0
362.600952	37303.0
372.968475	90946.0
412.621704	2248.0
413.125671	14153.0
413.827728	208371.0
414.444397	1.0
424.678528	10227.0
429.985596	469.0
431.063812	201872.0
431.865906	43994.0
441.164856	2786.0
441.81601	693625.0
442.547424	16.0
444.291595	95768.0
445.028198	5756560.0
445.833282	26.0
451.817871	2447.0
454.440735	17038.0
455.174194	21903.0
456.624573	1867.0
458.103943	107800.0
459.924408	509451.0
460.605988	2.0
473.086853	32492.0
483.021698	20010.0
483.886597	3389.0
491.168823	7650.0
492.954651	1654.0
496.529236	33226.0
511.712097	1497.0
512.256836	15946.0
523.083496	9110.0
524.189453	2418.0
530.115173	422665.0
530.610413	597.0
541.153503	49793.0
545.070312	7057.0
554.06366	38549.0
554.991821	9742497.0
555.694336	5847.0
559.072266	89033.0
571.463623	6964.0
572.187866	157986.0
572.999146	19181776.0
573.697754	1155.0
586.946106	62314.0
600.129028	225071.0
600.761719	3.0
622.709473	1350.0
628.232483	34051.0
630.0271	25879.0
636.18042	7513.0
644.148315	260694.0
644.768555	4.0
653.959595	226817.0
654.666626	1.0
671.069214	1445.0
END IONS

BEGIN IONS
PEPMASS=990.598
CHARGE=1
MSLEVEL=2
SOURCE_INSTRUMENT=LC-ESI-qTof
FILENAME=B1.mgf
SEQ=*..*
IONMODE=Positive
ORGANISM=GNPS-LIBRARY
NAME=unpublished peptide11M4 M+H
PI=Fenical-Jensen-Moore
DATACOLLECTOR=Max
SMILES=N/A
INCHI=N/A
INCHIAUX=N/A
PUBMED=N/A
SUBMITUSER=mwang87
LIBRARYQUALITY=1
SPECTRUMID=CCMSLIB00000001582
SCANS=1
112.076599	42.250679
113.085709	12.01705
140.068527	350.538696
141.072464	51.335709
142.082474	11.02724
152.591003	14.93307
211.141266	280.846893
212.142792	42.737751
214.116547	80.641167
215.114319	19.121481
228.128662	58.31654
235.752487	10.83488
239.137848	780.485596
239.276413	11.78788
239.676788	10.67008
240.140869	126.739998
270.179626	26.335051
299.171173	329.202698
300.176178	25.985121
310.213531	159.242599
311.224609	24.500429
313.185028	62.575619
314.196289	29.786831
327.450592	11.40152
327.7901	15.13793
337.827759	12.56402
338.064209	12.48641
338.207153	2455.389893
338.378845	35.460072
338.421173	12.81548
338.502045	15.61539
338.678833	18.450001
338.934784	21.07341
339.027649	11.43333
339.208435	724.965088
339.384552	14.13962
339.545624	10.17045
339.844482	13.46032
340.135986	14.67083
340.20993	50.293388
340.308105	11.01515
341.215637	16.46032
342.174011	14.14744
345.432404	10.71336
355.234589	31.263571
370.238312	10.5075
384.229248	13.72667
398.236938	161.382294
399.24408	94.578697
409.242279	93.394638
410.255035	18.177629
440.288391	26.92614
441.283264	17.48177
466.263641	623.549316
467.266479	280.091705
468.268494	83.791847
469.27417	16.4424
483.292419	67.868439
484.295502	45.54987
497.294586	13.98271
540.921204	10.2934
551.31897	1677.18396
551.534485	25.34054
551.617615	20.37047
551.926941	12.08188
552.319092	804.133301
552.694031	10.94083
553.319458	153.275497
554.31958	26.09922
618.366699	20.22315
626.802185	15.46377
636.369995	1653.060059
636.610046	31.845461
636.938171	14.50694
637.371338	1012.385986
637.781982	17.240801
638.05896	17.50099
638.380371	230.912598
639.372925	45.346939
653.401978	30.25621
654.410034	24.005051
685.046387	10.82105
685.60907	12.73852
713.955505	11.82738
717.427551	15.79271
718.429626	27.486771
735.304321	10.70833
735.438416	1671.395996
736.123657	16.3848
736.294128	14.83611
736.443604	893.740112
736.585999	35.842258
736.863831	14.3912
736.933838	15.50914
737.267395	14.80667
737.444153	275.497803
737.769287	15.37674
738.286438	10.23611
738.452087	55.327881
738.63092	19.867861
738.851807	10.80857
756.297607	10.04583
820.492676	1042.223999
820.754639	19.213381
821.001343	10.41667
821.207031	12.00794
821.494446	713.933472
821.847595	17.86842
822.373291	24.507811
822.494507	257.914398
822.869324	16.500441
823.493103	62.407501
825.565308	13.69851
826.75531	12.66856
903.863098	12.53309
905.542725	688.550415
906.546021	442.977295
906.963989	10.83432
907.554077	156.333298
908.556824	28.942341
925.159729	11.15972
925.251526	25.76136
990.596985	1370.983032
990.800903	22.973539
991.341125	12.65438
991.596436	937.90033
992.025452	20.509871
992.301331	12.96528
992.601135	461.512207
993.280457	18.573351
993.614319	48.950642
994.2948	12.00149
994.64679	12.90818
994.759277	13.85417
1112.278687	12.6062
END IONS

BEGIN IONS
PEPMASS=497.9
CHARGE=0
MSLEVEL=2
SOURCE_INSTRUMENT=LC-ESI-qTof
FILENAME=20121108_Jenia_Ger_TumonoicAcidI_MH_497p9_qb.1.1..mgf
SEQ=*..*
IONMODE=Positive
ORGANISM=GNPS-LIBRARY
NAME=Tumonoic Acid I M+H
PI=Gerwick
DATACOLLECTOR=Jenia
SMILES=CCCC[C@H](C)C[C@H](C)C(=O)N1CCC[C@H]1C(=O)O[C@H]([C@@H](C)CC)C(=O)O[C@@H]([C@@H](C)CC)C(=O)O
INCHI=InChI=1S/C27H47NO7/c1-8-11-13-17(4)16-20(7)24(29)28-15-12-14-21(28)26(32)35-23(19(6)10-3)27(33)34-22(25(30)31)18(5)9-2/h17-23H,8-16H2,1-7H3,(H,30,31)/t17-,18-,19-,20-,21-,22-,23+/m0/s1
INCHIAUX=N/A
PUBMED=N/A
SUBMITUSER=mwang87
LIBRARYQUALITY=1
SPECTRUMID=CCMSLIB00000001583
SCANS=1
141.056274	53731.0
154.681396	79104.0
193.304504	37044.0
211.703552	95704.0
222.909348	292595.0
223.762924	6000360.0
224.515045	62643.0
229.887543	253669.0
230.434143	27.0
248.962646	21379.0
250.951706	853361.0
251.832596	43308768.0
252.666031	147.0
270.04718	12488.0
270.654785	27994.0
325.944458	66099.0
342.75531	85759.0
343.971649	9393978.0
344.703979	63.0
354.349854	38838.0
362.20752	29080.0
364.021851	17348.0
365.143951	935109.0
365.896942	85402448.0
366.486694	1385.0
383.95047	1933900.0
384.691925	41.0
451.054047	265223.0
451.88739	4897305.0
452.549438	44.0
475.956177	69932.0
479.850281	2147841.0
480.519409	157.0
END IONS

BEGIN IONS
PEPMASS=578.333
CHARGE=1
MSLEVEL=2
SOURCE_INSTRUMENT=LC-ESI-qTof
FILENAME=B3.mgf
SEQ=*..*
IONMODE=Positive
ORGANISM=GNPS-LIBRARY
NAME=Glucopiericidin M+H
PI=Fenical-Jensen-Moore
DATACOLLECTOR=Max
SMILES=N/A
INCHI=N/A
INCHIAUX=N/A
PUBMED=N/A
SUBMITUSER=mwang87
LIBRARYQUALITY=1
SPECTRUMID=CCMSLIB00000001584
SCANS=1
100.045776	176.486206
101.023048	924.756592
103.051384	377.42749
104.058235	188.595093
105.069588	9146.574219
105.16465	196.764099
106.071785	1230.541016
107.03981	144.589706
107.085129	8546.392578
107.181458	184.094696
108.044411	602.03772
108.086609	1304.100952
109.028114	4908.457031
109.100365	3496.590088
110.032066	380.537201
110.059021	870.101501
110.102325	447.914795
111.067932	754.133179
112.07505	458.156494
113.060982	215.211105
115.040398	762.245789
116.058258	106.048798
117.068634	1036.646973
118.071365	278.992188
119.08493	22121.449219
119.186104	485.345886
120.088295	2954.947021
121.053543	365.714813
121.100586	6993.736816
121.20388	144.606003
122.059319	1055.300049
122.10257	955.686707
123.067268	824.933899
123.11441	679.386475
124.075134	625.188171
124.116119	117.486702
125.048996	772.628784
126.054138	481.748505
126.090744	6448.566895
126.194702	134.060898
127.038498	4502.871094
127.092079	587.586487
128.04277	391.582214
129.068665	254.899597
130.075745	254.966507
131.084351	2234.197998
132.087845	576.174683
133.100311	10119.660156
133.20784	199.218506
134.060287	224.3694
134.10379	1528.599976
135.067398	532.126221
135.115768	2357.324951
136.038925	1672.609985
136.07283	986.808777
136.116943	442.047211
137.045029	389.062592
137.082001	639.64093
137.130676	419.265808
138.053802	992.10498
138.084229	322.098694
139.061874	4672.904785
139.171631	104.853897
140.069641	9989.168945
140.179382	205.511597
141.068634	1161.097046
142.073105	209.731003
143.084579	341.371704
144.091614	663.135681
145.049072	1066.666992
145.100357	2810.427002
146.058395	432.243713
146.105896	1062.139038
147.067215	221.5448
147.115646	2916.840088
148.075104	1342.937988
148.117569	531.012512
149.046371	225.296097
149.0802	315.910309
149.13147	1385.339966
150.054001	762.112122
150.088654	683.780396
150.13295	245.857498
151.061935	1719.985962
152.069717	1261.552002
153.075531	807.58313
154.048813	2502.35791
154.085068	7237.161133
154.200729	145.383499
155.056046	705.178772
155.087112	739.732178
156.073853	219.149994
157.100204	484.150787
158.107468	633.239014
159.115662	4880.030762
160.074799	625.085815
160.1203	1040.037964
161.082138	583.802185
161.131561	10972.830078
161.249313	219.983597
162.054001	1619.618042
162.08844	1560.902954
162.134399	2160.599121
163.060837	937.265381
163.096542	1547.651978
163.139877	395.370392
164.069824	941.402771
164.102127	570.125488
165.077133	511.528107
166.049362	2907.725098
166.082825	1227.345947
167.056686	6336.229004
167.177216	124.519302
168.064636	40504.140625
169.070343	7404.910156
169.190826	123.484703
170.075653	1010.299011
171.075851	102.394699
171.115875	493.677795
172.121872	291.604889
173.131134	2926.912109
174.05426	683.982483
174.08815	537.020874
174.134888	673.72052
175.061142	458.763611
175.097168	879.205017
175.145828	916.478027
176.069885	2637.699951
176.102768	1534.203003
176.14534	293.158691
177.076019	698.954712
177.113235	1843.277954
178.048798	477.562988
178.085968	1528.33606
179.057739	435.569
179.091125	574.256775
180.06459	1363.838013
180.098999	1400.473022
181.072327	1755.281006
182.080353	99165.242188
183.086304	25174.439453
184.092972	5383.707031
185.098007	613.641785
185.128235	306.584198
186.094086	129.817795
186.138336	219.550797
187.146698	561.673584
188.069977	2234.727051
188.147202	135.904907
189.076996	1898.319946
189.160736	143.008896
190.084732	1974.500977
191.092819	4620.374023
192.06514	2446.143066
192.095871	1951.79895
193.072983	2688.626953
194.080154	4883.038086
195.08728	1957.79895
196.095627	4812.524902
197.100845	816.891174
198.105103	136.363098
200.072922	186.001495
200.153336	134.844696
201.078308	123.430099
201.161667	151.233002
202.085205	2222.50293
203.092804	2314.094971
203.177811	261.507904
204.093994	854.057129
204.181335	112.654999
205.073257	1042.55896
205.103897	558.218811
206.080444	10782.379883
206.213303	199.715897
207.086945	4752.890137
207.218185	114.710197
208.095947	59446.160156
209.101395	14182.900391
209.235275	252.572998
210.108597	3022.689941
211.112686	398.07431
214.08638	230.338394
215.093277	323.609711
215.17868	3436.840088
216.100113	380.819305
216.182632	982.510986
217.107788	425.223206
217.18457	106.843597
218.081131	730.404114
218.112244	409.970093
219.088058	1172.484985
220.096039	6548.167969
220.233368	120.044899
221.103302	5188.932129
221.241592	106.9412
222.111572	9340.121094
222.249344	163.373306
223.11763	3822.808105
224.126968	8709.494141
224.265884	157.712006
225.130798	1661.886963
226.131821	207.645905
228.103256	219.943497
229.108047	152.011703
230.103546	194.765701
231.103836	156.681305
232.096436	658.63031
232.127457	392.265808
233.102997	760.160583
234.11145	3218.333008
235.118301	1870.709961
236.127457	9549.879883
236.270691	159.427902
237.130844	1855.171021
238.142151	2067.350098
239.146133	410.449799
240.119797	125.389801
242.115845	203.058304
244.096863	169.911804
244.128418	160.849792
245.107727	182.279205
246.114578	601.138184
247.117935	472.170288
248.127029	1950.458984
249.133194	710.240723
250.143265	3882.137939
251.146317	979.523499
252.153442	208.243301
256.130554	197.520096
257.125702	123.813499
258.112518	319.62149
258.143951	185.177597
259.119141	192.734207
260.127686	1009.609009
261.133209	337.244995
262.143066	1178.464966
263.148285	356.75589
264.158417	965.516479
265.161743	275.399902
270.145752	236.985992
271.119629	101.3218
272.130402	367.128815
272.160095	240.955704
273.134735	224.4534
274.142365	808.19397
275.14801	420.602997
276.158905	839.241211
277.162598	267.262604
278.174377	743.116699
279.177521	207.897598
284.149811	167.9189
286.149902	328.196686
287.151001	214.753693
288.158844	1097.879028
289.163361	426.604706
290.174286	2553.928955
291.177765	741.777283
292.188293	669.251404
293.192596	147.343597
298.150543	175.468201
300.193207	908.954712
301.184845	274.849213
302.174438	1332.067993
303.17865	509.273407
304.190155	3717.670898
305.192993	1251.008057
306.199066	216.443802
312.158081	142.3302
314.174194	549.501587
315.181549	281.446198
316.18985	2005.088989
317.193939	680.787109
318.202759	281.961609
320.185242	1109.659058
321.187714	344.286407
326.173523	210.819794
327.177277	131.631607
328.190491	713.040283
329.194672	342.10379
330.204773	642.793823
331.212067	683.063477
332.221771	6205.026855
332.389282	106.5839
333.22522	2269.297119
334.227905	359.758514
340.198608	115.649002
341.194824	126.966499
342.205658	1056.823975
343.208771	375.145905
344.218628	158.883698
352.225555	107.440399
354.206818	135.977707
356.220703	649.768372
357.224823	279.438202
368.22226	611.196777
369.224762	273.82901
370.234924	154.154999
382.236969	229.615799
383.243835	217.781006
384.252716	458.049194
385.256531	179.643799
398.268951	70232.070312
399.272217	28794.320312
400.276459	6052.893066
401.282166	894.559082
416.279694	7624.38623
416.466492	107.559303
417.283142	3097.943115
418.28598	642.42688
419.28894	103.486603
578.332214	5720.920898
579.335632	3050.660889
580.33844	823.960083
581.340881	150.165802
END IONS

BEGIN IONS
PEPMASS=498.1
CHARGE=0
MSLEVEL=2
SOURCE_INSTRUMENT=LC-ESI-qTof
FILENAME=20121108_Jenia_Ger_TumonoicAcidI_MH_498p1_qb.1.1..mgf
SEQ=*..*
IONMODE=Positive
ORGANISM=GNPS-LIBRARY
NAME=Tumonoic Acid I M+H
PI=Gerwick
DATACOLLECTOR=Jenia
SMILES=CCCC[C@H](C)C[C@H](C)C(=O)N1CCC[C@H]1C(=O)O[C@H]([C@@H](C)CC)C(=O)O[C@@H]([C@@H](C)CC)C(=O)O
INCHI=InChI=1S/C27H47NO7/c1-8-11-13-17(4)16-20(7)24(29)28-15-12-14-21(28)26(32)35-23(19(6)10-3)27(33)34-22(25(30)31)18(5)9-2/h17-23H,8-16H2,1-7H3,(H,30,31)/t17-,18-,19-,20-,21-,22-,23+/m0/s1
INCHIAUX=N/A
PUBMED=N/A
SUBMITUSER=mwang87
LIBRARYQUALITY=1
SPECTRUMID=CCMSLIB00000001585
SCANS=1
141.056274	80597.0
154.681396	118656.0
211.692444	99914.0
222.837402	327238.0
223.751923	7173704.0
224.515045	93961.0
229.857437	305698.0
230.434143	41.0
250.958084	1192329.0
251.8358	52451104.0
252.694672	126.0
270.654785	41991.0
325.916565	59359.0
342.75531	128639.0
343.968353	11442391.0
344.706909	81.0
365.149872	1348845.0
365.904297	103115704.0
366.657532	161.0
383.930817	2318164.0
451.054047	397835.0
451.866577	5833619.0
452.534393	60.0
475.956177	104898.0
479.857727	2408487.0
480.537079	192.0
END IONS

BEGIN IONS
PEPMASS=600.314
CHARGE=1
MSLEVEL=2
SOURCE_INSTRUMENT=LC-ESI-qTof
FILENAME=B3_1.mgf
SEQ=*..*
IONMODE=Positive
ORGANISM=GNPS-LIBRARY
NAME=Glucopiericidin M+Na
PI=Fenical-Jensen-Moore
DATACOLLECTOR=Max
SMILES=N/A
INCHI=N/A
INCHIAUX=N/A
PUBMED=N/A
SUBMITUSER=mwang87
LIBRARYQUALITY=1
SPECTRUMID=CCMSLIB00000001586
SCANS=1
105.069641	229.654099
106.07457	26.213881
107.084846	348.187012
108.08606	26.93103
109.028664	34.0625
109.064079	21.828131
109.101959	53.78125
110.033028	27.176041
110.064651	15.6808
111.066338	21.461781
113.020477	105.349197
114.026581	44.0163
116.058228	26.23617
117.066093	32.01025
117.564667	17.69945
118.063568	17.93821
119.08474	725.247375
120.0905	87.571167
121.100807	250.030594
122.101898	37.855629
123.0625	19.58507
123.11451	15.06021
124.072243	34.398441
125.021324	33.521111
126.025581	29.175739
126.090843	112.501999
127.034096	25.628201
127.086075	22.801649
128.045166	43.014591
129.046799	17.414289
131.075516	37.660511
133.100983	301.424011
134.102783	21.02367
135.11525	96.160522
136.04184	51.62508
136.073563	41.44902
136.118027	15.12756
137.080688	22.625179
137.152832	15.41806
139.06102	123.737099
140.067383	144.674103
141.053284	135.152405
142.05307	20.46154
143.02951	36.899391
145.100403	45.93222
145.653	16.799589
146.054688	31.9224
146.105591	45.501091
147.116104	69.438759
148.074158	33.528389
149.131912	61.09375
150.049744	21.790001
150.13826	31.099911
151.061539	38.27467
152.065643	24.28561
153.052551	27.638901
154.049545	33.728748
154.083633	99.812714
155.053772	22.059179
155.083878	18.308901
157.045456	25.546881
157.098907	22.28735
158.055069	17.35561
159.114944	173.383301
160.066452	23.262871
160.12001	31.71604
161.130524	271.510315
162.05368	47.655491
162.079681	24.517441
162.134308	41.011108
163.017654	32.00198
163.13353	15.30021
164.06752	34.410511
165.076904	17.19318
166.049484	30.480379
166.08876	17.033091
167.056656	118.617203
168.064468	530.551086
169.049469	182.381195
170.071518	32.595341
171.118591	20.24501
172.033966	39.871559
173.081772	21.460939
173.130127	121.375298
174.052582	41.926682
174.135391	34.75
175.023361	44.967289
175.059738	32.002121
175.094757	41.62516
175.146332	30.69231
176.029678	463.324402
176.108688	28.075701
177.036255	59.113441
177.100937	16.80563
178.045425	56.508221
178.087204	65.888924
178.129257	17.64801
178.997955	15.39405
180.065109	33.763931
180.09819	24.84918
181.071884	34.571411
182.080444	1936.916016
182.20932	35.88361
183.085587	402.636597
184.029663	24.120081
184.095505	109.506699
185.051361	16.02813
185.128571	19.65052
186.045761	37.077751
187.144669	31.44772
188.02919	25.43561
188.070877	48.138142
189.038269	244.232803
189.068787	98.995743
189.109772	26.746321
189.166946	20.80187
190.046448	2267.51001
190.176544	44.0858
191.052261	323.881592
192.059265	102.727203
192.097168	62.267391
193.073532	48.17976
194.079727	80.760597
195.085449	32.58503
196.097412	64.880089
197.067307	60.104691
198.075409	52.64373
199.083359	23.25223
200.027496	28.83449
200.065521	51.35294
201.036545	254.020599
201.160629	17.14509
202.041565	69.592529
202.086044	130.763901
203.051697	372.929291
203.78804	15.70161
204.061829	184.121094
204.832916	17.898359
205.070099	1666.394043
205.202759	29.74914
206.077423	535.322815
207.081116	130.018402
208.09465	223.872406
209.100861	90.292061
210.046188	17.116791
210.10791	19.08176
212.08934	210.376205
213.100266	55.046879
214.05014	71.423767
214.078812	69.889107
215.053543	417.713013
215.180954	67.741226
215.630554	20.444559
216.062607	316.405701
216.178711	21.253969
217.068863	68.648781
217.101151	31.60746
218.077316	129.776001
219.086807	88.140732
220.09726	209.723404
221.102188	178.687607
222.112167	149.204102
223.11882	38.634621
224.12558	98.944572
225.130615	20.26042
226.044174	22.16279
226.082123	70.148323
227.084885	46.344139
228.062637	1021.526001
229.069122	476.182587
229.209457	24.788931
230.078033	735.406921
231.082016	336.156097
232.084793	85.165817
233.098145	22.01305
234.111313	191.295593
235.116058	65.386948
236.127426	262.964386
237.129623	35.75
238.139893	24.25219
239.082413	21.460939
240.063171	48.261749
240.098801	25.902821
242.0746	66.235947
243.085876	1207.560059
243.230316	24.23616
244.093674	1585.406006
244.272888	20.867439
244.693588	16.384609
244.865784	16.425211
245.098892	432.560211
246.105423	118.150101
247.106705	26.39761
248.121155	15.37971
250.142227	70.076736
252.11969	25.13549
253.12674	24.51021
254.084396	50.672218
255.086838	132.623703
256.094849	146.259293
257.095032	58.8018
258.110016	4569.112793
258.259247	67.379593
258.308899	34.730011
258.540741	19.15313
258.632111	17.055059
258.816925	20.578131
258.920349	20.32654
258.97403	17.171881
259.112793	1067.810059
259.306702	18.015631
259.759888	15.43623
260.11972	165.616501
261.146057	15.51398
263.144623	17.66358
264.138916	15.75065
266.138336	22.64533
267.07605	17.29545
268.087158	21.328131
269.099762	79.703407
270.108154	236.626297
271.116028	133.986603
272.127167	78.341263
273.127777	18.308901
274.142395	16.90313
275.147827	29.80501
276.158173	17.345011
278.105164	17.86005
278.158417	31.380671
280.08844	16.44841
281.124084	15.27625
282.108704	34.115711
283.116333	49.132912
284.125122	147.789993
285.125458	35.819469
286.137939	17.13616
288.157501	17.773439
290.172607	70.311478
292.183228	16.645029
293.140564	16.17308
294.10434	94.1008
294.148804	32.738918
295.115814	54.821049
296.11908	58.657959
297.135101	26.013241
298.13855	49.412731
299.149902	40.108761
300.157806	40.44141
304.182373	22.56315
307.154114	18.8752
308.124298	87.724281
309.130554	127.537697
310.141174	119.813103
311.145142	28.507669
312.156158	38.656609
314.170532	28.19525
316.193756	19.20192
320.160431	22.112551
322.181763	40.810661
323.14859	176.008896
324.153503	372.381805
325.158783	79.666382
326.172363	43.193939
328.187195	21.25284
332.222748	22.95665
337.160583	25.418289
337.216003	20.713881
338.171997	384.901001
339.175781	164.823196
340.187378	18.399851
341.19928	15.44531
342.20343	26.503229
346.201019	16.031071
348.19928	18.0077
351.181244	15.44755
352.185059	63.625
353.196442	851.166504
353.371735	16.313219
354.197906	317.8992
355.202728	59.574478
360.147156	15.13945
362.197571	16.83333
364.178162	23.766451
364.225128	38.378799
369.802795	16.102079
374.211578	16.88065
375.200989	32.959881
376.223145	113.926102
377.216675	43.375
378.242889	26.139469
379.239624	15.53125
380.228394	18.6868
388.227051	34.431702
390.203308	362.396088
391.206482	252.291702
392.21817	827.179077
393.219482	320.327515
394.023804	16.52293
394.231659	58.543892
398.265472	108.470703
404.227081	28.12846
405.225677	168.712097
406.233185	323.756897
407.24115	542.401794
408.243103	209.457199
409.247681	64.562019
414.274994	21.609381
420.250641	1382.463989
421.012909	21.343031
421.252747	644.936523
421.661713	15.64509
422.265839	5536.676758
422.450531	76.485977
422.505859	44.065929
422.700531	36.523651
423.26947	2568.258057
423.458099	48.345261
423.514496	32.344521
423.658997	31.954201
424.187805	29.613689
424.271149	507.355286
424.468445	16.015011
424.637299	18.43508
424.924011	17.11083
425.276917	40.27
427.595459	15.75125
432.248474	20.171301
438.260254	193.651001
439.259979	89.136238
440.262421	28.7509
450.22879	20.225451
451.231445	16.170361
452.232483	20.876511
480.274353	83.955017
481.260895	30.223379
500.557648	15.63327
510.273651	25.450661
516.253418	27.83802
540.291504	42.295399
541.294861	23.87693
542.27533	69.176323
568.294739	15.82031
570.267944	224.113998
571.273682	109.500999
572.276123	61.400509
585.283081	74.885193
586.297119	72.184593
595.204407	22.615129
596.744141	15.18389
596.956238	19.13549
597.362366	15.58507
597.697754	15.30882
598.516357	19.737009
599.345032	16.477079
599.731689	16.375
599.820435	16.027451
599.902466	21.88273
600.314148	14944.799805
600.876343	34.86084
601.061829	38.610859
601.317017	8531.714844
601.54303	97.363457
601.614502	40.503971
601.717712	33.434311
601.936707	42.955528
602.148987	27.72226
602.319763	2331.428955
602.553406	35.045151
602.72522	18.30555
602.876343	16.446911
603.02771	25.220881
603.325317	354.262299
603.451477	31.350019
603.538086	16.354879
604.323914	19.14381
604.487732	21.645981
604.663269	19.00532
610.046143	15.75833
822.410156	22.160191
END IONS

BEGIN IONS
PEPMASS=424.0
CHARGE=0
MSLEVEL=2
SOURCE_INSTRUMENT=LC-ESI-qTof
FILENAME=20121109_Jenia_Ger_MalyngamideK_MH_424_qb.1.1..mgf
SEQ=*..*
IONMODE=Positive
ORGANISM=GNPS-LIBRARY
NAME=Malyngamide K M+H
PI=Gerwick
DATACOLLECTOR=Jenia
SMILES=CCCCCCC[C@@H](C/C=C/CCC(=O)NC/C(=C/Cl)/C1=CCCCC1=O)OC
INCHI=InChI=1S/C24H38ClNO3/c1-3-4-5-6-8-13-21(29-2)14-9-7-10-17-24(28)26-19-20(18-25)22-15-11-12-16-23(22)27/h7,9,15,18,21H,3-6,8,10-14,16-17,19H2,1-2H3,(H,26,28)/b9-7+,20-18-/t21-/m0/s1
INCHIAUX=N/A
PUBMED=N/A
SUBMITUSER=mwang87
LIBRARYQUALITY=1
SPECTRUMID=CCMSLIB00000001587
SCANS=1
120.83783	35150.0
131.815811	27949.0
133.064758	12317.0
138.824432	10659.0
140.53717	11092.0
166.067322	2403.0
167.97995	946862.0
168.889359	233016.0
169.666656	1.0
183.987366	24128.0
185.835175	647954.0
186.435883	4.0
188.647751	36099.0
199.756287	4400.0
200.304626	24416.0
206.922211	15485.0
211.826141	13326.0
213.287537	5976.0
215.761414	3959.0
224.015701	45580.0
224.627258	7.0
238.730286	13185.0
240.923981	13226.0
251.802628	112496.0
256.112823	17113.0
263.463501	22457.0
264.411743	8522.0
264.918518	24931.0
265.950317	32556.0
267.710663	24484.0
279.974854	8231.0
281.878082	678478.0
282.594818	13.0
290.967285	12054.0
295.873169	22072.0
307.730591	5129.0
311.093628	51216.0
338.036041	43270.0
338.913452	81333.0
356.033356	128886.0
356.71106	1.0
373.271057	29868.0
373.992462	332013.0
391.303711	358095.0
391.947296	36959392.0
392.561035	11358.0
393.895752	37014.0
405.85376	376517.0
406.670319	6.0
424.216187	4870.0
END IONS

BEGIN IONS
PEPMASS=566.428
CHARGE=1
MSLEVEL=2
SOURCE_INSTRUMENT=LC-ESI-qTof
FILENAME=B4.mgf
SEQ=*..*
IONMODE=Positive
ORGANISM=GNPS-LIBRARY
NAME=unpublished ME5.F6 M+H
PI=Fenical-Jensen-Moore
DATACOLLECTOR=Max
SMILES=N/A
INCHI=N/A
INCHIAUX=N/A
PUBMED=N/A
SUBMITUSER=mwang87
LIBRARYQUALITY=1
SPECTRUMID=CCMSLIB00000001588
SCANS=1
154.15799	3458.259033
155.16153	338.435089
183.184692	238.076401
199.179718	54049.410156
200.182831	6971.207031
201.185989	438.38031
209.16333	761.050476
227.174576	157016.296875
228.177795	21990.869141
229.180389	1863.446045
237.158768	775.682129
244.201187	776.442993
245.198715	228.614594
255.17038	751.630615
267.242493	11366.129883
268.245422	2087.477051
295.237518	37598.660156
296.240631	8010.46582
297.2435	875.327087
312.263611	1489.03894
313.266357	348.311707
322.248077	2279.158936
323.23764	1609.279053
324.239014	267.424103
340.258972	207475.0
341.262238	49402.339844
342.264832	6082.479004
343.267609	484.800995
350.243073	2495.146973
351.246552	684.440125
368.253876	5189.711914
369.25708	1303.785034
370.259705	240.739105
407.338013	280.667389
408.32193	33337.390625
409.32489	10207.719727
410.328033	1525.932983
425.34848	55491.28125
426.35141	17760.720703
427.353943	2688.162109
428.355438	266.152893
435.332336	1289.354004
436.328247	599.117676
453.343506	109815.5
454.346405	38052.089844
455.349121	6417.684082
456.351074	561.973572
463.326935	2722.936035
464.329865	979.331726
481.337982	5490.021973
482.341064	1944.998047
483.345886	312.561493
493.410645	2842.061035
494.414551	1222.873047
495.417511	222.030594
521.406067	15867.589844
522.409058	6541.516113
523.411377	1305.928955
538.432495	24231.339844
539.435486	10409.969727
540.438538	2171.769043
541.441345	237.052597
548.41687	1119.18396
549.419128	455.472107
566.427185	22949.039062
567.430542	10531.160156
568.43335	2286.884033
569.437927	266.563812
END IONS

BEGIN IONS
PEPMASS=607.9
CHARGE=0
MSLEVEL=2
SOURCE_INSTRUMENT=LC-ESI-qTof
FILENAME=20121113_Ger_Jenia_Malyngamide_J_MH607.9-qb.1.1..mgf
SEQ=*..*
IONMODE=Positive
ORGANISM=GNPS-LIBRARY
NAME=Malyngamide_J M+H
PI=Gerwick
DATACOLLECTOR=Jenia
SMILES=CCCCCCC[C@@H](C/C=C/CCC(=O)NCCC(=C)[C@@]12[C@@H](O1)[C@@H](C=C(C2=O)C)OC3C(C(C(CO3)OC)O)OC)OC
INCHI=InChI=1S/C33H53NO9/c1-7-8-9-10-12-15-24(38-4)16-13-11-14-17-27(35)34-19-18-23(3)33-30(37)22(2)20-25(31(33)43-33)42-32-29(40-6)28(36)26(39-5)21-41-32/h11,13,20,24-26,28-29,31-32,36H,3,7-10,12,14-19,21H2,1-2,4-6H3,(H,34,35)/b13-11+/t24-,25+,26?,28?,29?,31-,32?,33+/m0/s1
INCHIAUX=N/A
PUBMED=N/A
SUBMITUSER=mwang87
LIBRARYQUALITY=1
SPECTRUMID=CCMSLIB00000001589
SCANS=1
175.04303	690.0
223.92569	316.0
282.892944	823.0
302.954224	405.0
380.065247	402.0
398.024689	1766.0
401.749817	514.0
415.946777	3462.0
430.15686	266.0
447.949921	2284.0
503.802002	244.0
535.590942	538.0
606.9505	1180.0
607.534912	703.0
END IONS

BEGIN IONS
PEPMASS=515.322
CHARGE=1
MSLEVEL=2
SOURCE_INSTRUMENT=LC-ESI-qTof
FILENAME=B6.mgf
SEQ=*..*
IONMODE=Positive
ORGANISM=GNPS-LIBRARY
NAME=Microsporin B M+H
PI=Fenical-Jensen-Moore
DATACOLLECTOR=Max
SMILES=[H][C@]12CCCCN1C(=O)[C@H](CC1=CC=CC=C1)NC(=O)[C@H](C)NC(=O)[C@H](CCCCCC(O)CC)NC2=O
INCHI=InChI=1S/C28H42N4O5/c1-3-21(33)14-8-5-9-15-22-26(35)29-19(2)25(34)31-23(18-20-12-6-4-7-13-20)28(37)32-17-11-10-16-24(32)27(36)30-22/h4,6-7,12-13,19,21-24,33H,3,5,8-11,14-18H2,1-2H3,(H,29,35)(H,30,36)(H,31,34)/t19-,21?,22-,23-,24+/m0/s1
INCHIAUX=ZRWKFXOGNFQPMY-SKZIAFMESA-N
PUBMED=N/A
SUBMITUSER=mwang87
LIBRARYQUALITY=1
SPECTRUMID=CCMSLIB00000001590
SCANS=1
103.053947	439.416687
112.075134	17471.570312
112.173378	389.679504
113.078751	1090.959961
120.08004	25510.769531
121.083061	2815.756104
123.116119	4030.430908
124.118217	441.182098
128.069153	958.146118
129.101456	2421.096924
130.085495	19431.349609
130.19136	379.435089
131.088684	1648.859985
132.08287	555.377625
140.069672	37317.398438
140.142227	8427.033203
141.073044	3362.468018
141.137421	1054.386963
142.075211	301.004303
142.157623	425.337585
146.094803	480.12439
158.153	33867.730469
159.156204	3941.190918
160.158585	253.463303
166.085342	3377.333008
166.156235	346.045013
167.088364	486.162598
168.097977	186.635101
168.137054	577.999512
183.111343	198.015198
185.163635	461.462799
186.130356	487.552002
191.116623	2566.455078
192.119522	342.995605
198.125824	239.783707
201.102005	248.484802
211.106354	645.667175
211.17955	9483.306641
212.182541	1601.958008
213.189957	226.248001
214.13739	455.811798
215.152756	1291.760986
216.156265	208.900497
219.111511	1109.832031
220.11319	194.418701
223.179672	247.888702
224.200073	543.400513
229.12767	312.279907
229.189789	6236.644043
230.1931	1094.910034
231.148087	32018.310547
232.150238	6724.664062
233.154221	569.85437
237.122894	2368.342041
238.125259	374.744202
239.17424	17195.619141
239.317596	320.812897
240.177353	3276.879883
241.13591	333.793488
241.181992	486.17511
242.116776	2674.471924
242.18869	435.633087
243.120697	611.75592
251.210815	4956.712891
252.212341	1064.206055
253.223267	236.866394
257.183502	18477.220703
258.18634	3406.489014
259.143127	46232.5
260.145935	10213.019531
261.149567	976.287598
267.19809	724.592285
269.221527	99686.1875
270.224731	20427.730469
271.226959	1985.571045
275.137604	578.252075
277.153717	3745.571045
278.156555	836.147217
279.20575	7139.160156
280.208435	1661.042969
281.21637	345.037292
285.160645	7220.674805
286.164368	1696.733032
287.158844	276.18689
295.232849	576.302185
296.234344	638.062378
297.216461	76188.296875
298.219574	16796.130859
298.37915	248.981293
299.222046	2154.289062
305.2211	2172.760986
306.224609	530.911377
313.153412	1995.016968
313.218597	373.687195
314.157806	487.472809
314.240814	314.802399
323.234436	236.522202
330.180237	24926.939453
331.183502	6921.158203
332.186523	897.906921
340.258087	3704.037109
341.236237	1354.55603
342.236206	389.025696
350.243011	8623.78418
351.241943	3082.460938
352.247528	766.913025
358.175293	394.402191
358.247009	798.447021
359.232941	4898.981934
360.23587	1431.009033
361.226746	380.515686
367.269226	1010.784973
368.253479	172760.296875
369.256561	48869.511719
370.258514	6673.790039
371.26535	1641.680054
372.271667	303.869202
376.258331	3466.891113
377.26059	1220.802002
380.269165	252.172302
386.243073	8069.240234
387.24292	3190.150879
388.241302	630.72583
399.263489	6088.033203
400.266388	2115.451904
401.270996	327.743591
404.253052	8873.078125
405.255615	3044.801025
406.259827	417.652008
408.262604	1134.623047
409.266632	388.748108
414.237061	221.933395
426.274353	3825.191895
427.277588	1380.926025
428.281342	246.127594
432.248444	1450.819946
433.249756	515.666626
442.307251	267.636993
444.284912	2767.259033
445.287567	1076.654053
446.29071	201.731094
454.305237	216.720993
469.316681	1642.29895
470.303833	3238.549072
471.314789	1329.095947
472.311157	366.131287
487.327393	50367.820312
488.330048	20347.699219
489.333099	3759.806885
490.337097	362.14209
497.311829	5545.816895
498.308868	3489.633057
499.30719	928.626099
515.321838	57704.839844
516.325134	23715.640625
517.327637	4745.202148
518.328979	673.691406
END IONS

BEGIN IONS
PEPMASS=608.0
CHARGE=0
MSLEVEL=2
SOURCE_INSTRUMENT=LC-ESI-Ion Trap
FILENAME=20121113_Jenia_Ger_MalyngamideJ_MH_608_qb.1.1..mgf
SEQ=*..*
IONMODE=Positive
ORGANISM=GNPS-LIBRARY
NAME=Malyngamide J M+H
PI=Gerwick
DATACOLLECTOR=Jenia
SMILES=CCCCCCC[C@@H](C\C=C\CCC(=O)NCCC(=C)[C@]12O[C@H]1[C@H](OC1OCC(OC)C(O)C1OC)C=C(C)C2=O)OC
INCHI=InChI=1S/C33H53NO9/c1-7-8-9-10-12-15-24(38-4)16-13-11-14-17-27(35)34-19-18-23(3)33-30(37)22(2)20-25(31(33)43-33)42-32-29(40-6)28(36)26(39-5)21-41-32/h11,13,20,24-26,28-29,31-32,36H,3,7-10,12,14-19,21H2,1-2,4-6H3,(H,34,35)/b13-11+/t24-,25+,26?,28?,29?,31-,32?,33+/m0/s1
INCHIAUX=UZMVEOVJASEKLP-BYPNWZLWSA-N
PUBMED=N/A
SUBMITUSER=mwang87
LIBRARYQUALITY=1
SPECTRUMID=CCMSLIB00000001591
SCANS=1
223.92569	791.0
282.892944	2058.0
302.954224	1012.0
398.024689	4416.0
401.749817	1285.0
415.898895	5169.0
430.15686	666.0
448.012909	4254.0
503.802002	610.0
535.590942	1345.0
607.262451	806.0
END IONS

BEGIN IONS
PEPMASS=537.304
CHARGE=1
MSLEVEL=2
SOURCE_INSTRUMENT=LC-ESI-qTof
FILENAME=B6_1.mgf
SEQ=*..*
IONMODE=Positive
ORGANISM=GNPS-LIBRARY
NAME=Microsporin B M+Na
PI=Fenical-Jensen-Moore
DATACOLLECTOR=Max
SMILES=[H][C@]12CCCCN1C(=O)[C@H](CC1=CC=CC=C1)NC(=O)[C@H](C)NC(=O)[C@H](CCCCCC(O)CC)NC2=O
INCHI=InChI=1S/C28H42N4O5/c1-3-21(33)14-8-5-9-15-22-26(35)29-19(2)25(34)31-23(18-20-12-6-4-7-13-20)28(37)32-17-11-10-16-24(32)27(36)30-22/h4,6-7,12-13,19,21-24,33H,3,5,8-11,14-18H2,1-2H3,(H,29,35)(H,30,36)(H,31,34)/t19-,21?,22-,23-,24+/m0/s1
INCHIAUX=ZRWKFXOGNFQPMY-SKZIAFMESA-N
PUBMED=N/A
SUBMITUSER=mwang87
LIBRARYQUALITY=1
SPECTRUMID=CCMSLIB00000001592
SCANS=1
307.162506	450.311188
454.229797	847.987183
509.308838	3883.174072
510.311493	1157.130005
537.303528	330681.40625
538.30719	131315.296875
539.309448	24553.699219
539.519348	380.862915
540.312378	2695.251953
END IONS

BEGIN IONS
PEPMASS=498.0
CHARGE=0
MSLEVEL=2
SOURCE_INSTRUMENT=LC-ESI-Ger
FILENAME=20121113_Jenia_Ger_MalyngCacetate_MH_498_qb.1.1..mgf
SEQ=*..*
IONMODE=Positive
ORGANISM=GNPS-LIBRARY
NAME=Malyngamide C acetate M+H
PI=Gerwick
DATACOLLECTOR=Jenia
SMILES=N/A
INCHI=N/A
INCHIAUX=N/A
PUBMED=N/A
SUBMITUSER=mwang87
LIBRARYQUALITY=1
SPECTRUMID=CCMSLIB00000001593
SCANS=1
145.778839	61017.0
146.990845	200996.0
147.814819	9.0
154.93338	120634.0
157.01532	37823.0
163.783813	223078.0
165.008453	82176.0
165.927124	51651.0
171.851624	156400.0
181.755768	48268.0
188.751953	66914.0
189.483337	4.0
197.710419	62604.0
199.703674	406258.0
200.501038	156205.0
204.131836	19417.0
205.765381	146820.0
206.860413	51581.0
215.116699	13151.0
219.875214	95089.0
221.963501	122947.0
223.872253	212659.0
224.636108	24.0
235.981812	125947.0
236.848755	34097.0
241.80896	232241.0
242.56665	16.0
243.737244	32658.0
254.0914	67106.0
259.872314	806568.0
263.11554	45395.0
267.90625	48934.0
274.675537	39375.0
275.680359	20312.0
281.915039	36512.0
293.212036	49865.0
299.754761	42073.0
300.442688	46747.0
305.695679	14536.0
316.017456	27149.0
334.888123	69735.0
341.571777	23276.0
342.269287	39638.0
351.969971	199658.0
353.064819	18141.0
355.926392	912094.0
356.678711	22.0
370.051147	1127494.0
370.799927	2.0
378.122437	2001563.0
378.77771	3.0
379.827759	122677.0
383.815979	102312.0
388.057556	195086.0
394.139587	21214.0
401.988831	132899.0
405.924194	1582685.0
406.77771	27.0
410.255188	98296.0
423.9953	419004.0
424.740662	9.0
429.978577	236102.0
436.844971	179171.0
437.821472	63802.0
448.127563	64502.0
461.506714	24977.0
464.887451	26452.0
465.917664	74881472.0
466.667175	114.0
467.997009	84947.0
479.747437	39905.0
END IONS

BEGIN IONS
PEPMASS=584.285
CHARGE=1
MSLEVEL=2
SOURCE_INSTRUMENT=LC-ESI-qTof
FILENAME=B7.mgf
SEQ=*..*
IONMODE=Positive
ORGANISM=GNPS-LIBRARY
NAME=Microsporin C M+H
PI=Fenical-Jensen-Moore
DATACOLLECTOR=Max
SMILES=N/A
INCHI=N/A
INCHIAUX=N/A
PUBMED=N/A
SUBMITUSER=mwang87
LIBRARYQUALITY=1
SPECTRUMID=CCMSLIB00000001594
SCANS=1
105.069168	557.507629
118.064224	293.680511
119.071968	1327.050049
120.043396	1869.438965
134.09549	145488.09375
135.098633	14720.080078
135.206207	257.680206
136.10144	539.330627
148.03775	491.872589
162.090103	13014.540039
162.208496	196.743607
163.089493	2895.243896
164.092743	249.373398
171.073044	215.3526
173.07016	215.1884
174.125076	172.305603
179.11528	228.5513
180.100174	332.673706
189.135651	336.321106
190.084869	18922.730469
190.213898	370.002014
191.083649	5112.701172
192.086136	503.1008
201.062439	378.57489
205.131821	14218.089844
205.263855	239.330994
206.134705	2091.458008
216.100433	1062.29895
217.100616	270.795898
217.12677	237.126694
219.076996	186.764099
233.12709	73189.820312
234.130157	12741.780273
234.271667	207.847794
235.133316	1176.883057
243.098526	455.423401
244.104614	339.442902
251.134918	207.705399
261.121155	184.195801
265.131012	200.333298
279.147949	173.690399
281.126984	28227.980469
282.129791	5855.999023
283.133575	593.469727
293.126282	471.000397
304.16391	3465.024902
305.166565	658.395813
307.14682	313.630493
323.175842	200.7099
334.153046	1875.20105
335.159424	563.214478
350.224762	212.221802
352.164093	27999.380859
353.166931	6790.227051
354.169525	932.84491
362.147888	237.459396
363.168915	3420.696045
364.171661	855.362183
366.21698	752.294983
367.216614	258.212891
378.178772	382.288391
380.158813	1348.240967
381.161346	316.391998
383.2034	197.173798
394.211029	40740.0
395.213989	12676.280273
395.383698	171.946899
396.21698	1740.600952
397.21701	303.007812
405.188934	484.1091
406.197754	163.3414
423.200989	12715.639648
423.387634	158.300797
424.20462	3890.064941
425.205719	743.335571
433.186218	301.006714
512.265808	215.520798
513.248657	7425.246094
514.250671	3323.584961
515.252502	642.281921
523.233887	269.669006
539.264282	330.787994
556.289368	568.082214
557.290161	192.449493
566.271118	373.287201
567.263489	295.816986
584.284912	21751.679688
585.288086	10959.0
586.290405	2244.346924
587.296448	373.6297
END IONS

BEGIN IONS
PEPMASS=687.1
CHARGE=0
MSLEVEL=2
SOURCE_INSTRUMENT=LC-ESI-qTof
FILENAME=20121115_Jenia_Ger_CarmabinA_MH_687_qb.1.1..mgf
SEQ=*..*
IONMODE=Positive
ORGANISM=GNPS-LIBRARY
NAME=Carmabin A M+H
PI=Gerwick
DATACOLLECTOR=Jenia
SMILES=C[C@@H](C(=O)N(C)[C@@H](C)C(=O)N(C)[C@@H](CC1=CC=C(C=C1)OC)C(=O)N)NC(=O)[C@H](CC2=CC=CC=C2)N(C)C(=O)C(C)CC(C)CCCCC#C
INCHI=InChI=1S/C40H57N5O6/c1-10-11-12-14-17-27(2)24-28(3)38(48)45(8)35(26-31-18-15-13-16-19-31)37(47)42-29(4)39(49)43(6)30(5)40(50)44(7)34(36(41)46)25-32-20-22-33(51-9)23-21-32/h1,13,15-16,18-23,27-30,34-35H,11-12,14,17,24-26H2,2-9H3,(H2,41,46)(H,42,47)/t27?,28?,29-,30-,34-,35-/m0/s1
INCHIAUX=N/A
PUBMED=N/A
SUBMITUSER=mwang87
LIBRARYQUALITY=1
SPECTRUMID=CCMSLIB00000001595
SCANS=1
276.869507	21001.0
294.301819	7017.0
312.023926	794037.0
312.819946	20.0
337.883972	97934.0
338.493286	5.0
339.125366	122850.0
339.920959	5363192.0
340.822144	6.0
410.917786	1067787.0
411.679932	5.0
433.263245	14887.0
493.936279	99452.0
494.988586	186104.0
495.947083	10123614.0
496.852173	37.0
687.296997	24184.0
END IONS

BEGIN IONS
PEPMASS=606.267
CHARGE=1
MSLEVEL=2
SOURCE_INSTRUMENT=LC-ESI-qTof
FILENAME=B7_1.mgf
SEQ=*..*
IONMODE=Positive
ORGANISM=GNPS-LIBRARY
NAME=Microsporin C M+Na
PI=Fenical-Jensen-Moore
DATACOLLECTOR=Max
SMILES=N/A
INCHI=N/A
INCHIAUX=N/A
PUBMED=N/A
SUBMITUSER=mwang87
LIBRARYQUALITY=1
SPECTRUMID=CCMSLIB00000001596
SCANS=1
241.056107	250.250397
384.130341	244.467606
417.175385	133.5289
427.17218	168.398407
445.183136	820.411377
446.185638	191.677307
473.178192	992.37439
474.180023	221.009598
535.231201	163.1129
578.27124	476.601898
579.274719	138.467804
606.267151	124672.703125
607.270325	50809.46875
608.272644	10290.080078
609.274719	1258.75
END IONS

BEGIN IONS
PEPMASS=427.0
CHARGE=0
MSLEVEL=2
SOURCE_INSTRUMENT=LC-ESI-qTof
FILENAME=20121115_Jenia_Ger_Stypoldione_MH_427_qb.1.1..mgf
SEQ=*..*
IONMODE=Positive
ORGANISM=GNPS-LIBRARY
NAME=Stypoldione M+H
PI=Gerwick
DATACOLLECTOR=Jenia
SMILES=C[C@H]1CC[C@@H]2[C@]3(CC[C@@H](C([C@@H]3CC[C@]2([C@]14CC5=C(O4)C(=CC(=O)C5=O)C)C)(C)C)O)C
INCHI=InChI=1S/C27H38O4/c1-15-13-18(28)22(30)17-14-27(31-23(15)17)16(2)7-8-20-25(5)11-10-21(29)24(3,4)19(25)9-12-26(20,27)6/h13,16,19-21,29H,7-12,14H2,1-6H3/t16-,19-,20+,21-,25-,26+,27-/m0/s1
INCHIAUX=N/A
PUBMED=N/A
SUBMITUSER=mwang87
LIBRARYQUALITY=1
SPECTRUMID=CCMSLIB00000001597
SCANS=1
122.904297	38113.0
124.77861	6982.0
125.902924	12028.0
132.821686	40530.0
133.374084	1.0
134.973755	31509.0
138.971313	6807.0
141.077148	8237.0
141.878632	6454.0
144.965393	100254.0
145.714966	1.0
146.935898	92475.0
147.599915	4.0
148.827423	51158.0
149.473785	12.0
150.863586	5646.0
152.906174	1252761.0
153.586029	8.0
154.11145	2703.0
154.863525	6752.0
158.970291	138086.0
159.652527	8.0
160.953506	161781.0
161.581818	4.0
162.860275	114549.0
164.783463	162909.0
165.423798	2.0
166.920731	72955.0
167.536072	1.0
170.028763	13217.0
170.946167	54256.0
172.092773	7420.0
172.968964	117374.0
173.982697	2335.0
174.927048	42711.0
175.825592	8287.0
176.943054	21493.0
178.830215	262333.0
179.48201	19.0
180.796524	382341.0
181.515182	4.0
182.97522	11210.0
184.965988	68953.0
185.548462	4.0
186.981812	222421.0
187.727234	1.0
188.886322	29995.0
190.874741	297968.0
191.63118	11.0
192.870453	110438.0
194.853287	70532.0
198.982834	69110.0
199.97757	12988.0
200.918045	155234.0
201.548553	6276.0
202.997101	66738.0
204.282715	3701.0
204.864273	23077.0
206.922714	44502.0
210.734863	9590.0
213.111282	96579.0
214.916534	155450.0
215.63562	1.0
216.925018	37971.0
217.581543	2.0
218.912369	77824.0
219.782501	1.0
220.782669	30575.0
227.184692	11376.0
228.981171	241850.0
229.606445	2.0
230.814651	100645.0
231.555298	8.0
232.753021	74553.0
233.439453	19.0
234.763794	9267.0
238.871536	20428.0
241.044312	11114.0
243.04274	222510.0
243.966827	3796.0
245.065536	135890.0
245.650665	9613.0
246.891098	242828.0
247.665649	5.0
248.227325	20437.0
248.808304	24197.0
252.884705	30958.0
254.973373	698336.0
255.996338	40211.0
256.999786	1323365.0
257.744202	22537.0
259.008057	160957.0
259.632568	3.0
260.88208	239110.0
261.587769	9.0
266.814819	65477.0
268.968689	360880.0
269.526489	10444.0
270.894043	64562.0
271.621704	5.0
272.402954	101042.0
272.999054	1555364.0
274.089386	45753.0
274.920746	594853.0
275.622192	29.0
276.935608	10930.0
279.100708	18074.0
280.853943	25567.0
282.958313	22662.0
284.800018	61851.0
287.038635	378345.0
288.378845	7021.0
289.070312	9872.0
290.555664	4111.0
292.881714	5543.0
294.980408	33994.0
296.869446	9298.0
298.795929	199372.0
299.344116	4.0
300.240601	3614.0
300.885315	204197.0
301.792419	2912.0
304.828979	1754.0
306.889038	13821.0
311.130249	9852.0
312.253052	10202.0
312.944061	132258.0
314.861115	234221.0
316.946899	87125.0
321.026123	28489.0
324.825928	46409.0
325.422974	4.0
326.957764	42210.0
328.798187	14881.0
330.631226	81056.0
335.086029	11402.0
338.832001	97573.0
340.861847	223910.0
341.594757	1.0
342.848755	11203.0
344.854645	57076.0
346.416016	12150.0
351.07373	3638.0
352.389282	29841.0
353.117737	38585.0
354.682007	9212.0
355.201355	7213.0
357.024353	53466.0
363.030029	37872.0
365.94104	19669.0
366.563049	10333.0
372.838226	58726.0
381.105286	13082.0
381.871704	4057.0
382.720398	3777.0
391.021667	461861.0
391.653748	4570.0
397.051331	17402.0
398.69165	9393.0
408.305847	15548.0
409.005981	6192136.0
409.806854	11.0
419.364685	11142.0
426.832214	15655.0
END IONS

BEGIN IONS
PEPMASS=850.636
CHARGE=1
MSLEVEL=2
SOURCE_INSTRUMENT=LC-ESI-qTof
FILENAME=B9.mgf
SEQ=*..*
IONMODE=Positive
ORGANISM=GNPS-LIBRARY
NAME=Halovir C M+H
PI=Fenical-Jensen-Moore
DATACOLLECTOR=Max
SMILES=CCCCCCCCCCCCCC(=O)NC(C)(C)C(=O)N1CCC[C@H]1C(=O)N[C@@H](CC(C)C)C(=O)N[C@@H](C(C)C)C(=O)NC(CCC(N)=O)C(=O)N[C@H](CO)CC(C)C
INCHI=InChI=1S/C45H83N7O8/c1-10-11-12-13-14-15-16-17-18-19-20-23-38(55)51-45(8,9)44(60)52-26-21-22-36(52)42(58)49-35(28-31(4)5)41(57)50-39(32(6)7)43(59)48-34(24-25-37(46)54)40(56)47-33(29-53)27-30(2)3/h30-36,39,53H,10-29H2,1-9H3,(H2,46,54)(H,47,56)(H,48,59)(H,49,58)(H,50,57)(H,51,55)/t33-,34?,35-,36-,39-/m0/s1
INCHIAUX=VCAGNEUDNVLWPT-WTPQGBEESA-N
PUBMED=N/A
SUBMITUSER=mwang87
LIBRARYQUALITY=1
SPECTRUMID=CCMSLIB00000001598
SCANS=1
183.147507	177.776901
184.150513	16.43787
211.142197	404.645905
212.144791	47.831402
228.167358	117.841904
229.153503	107.418999
230.155334	11.23717
246.179642	140.553497
247.183884	22.32782
282.216522	22.96011
296.2565	31.382071
310.211243	1053.015991
310.376465	14.16454
311.213074	180.967407
312.215149	24.01376
327.236603	117.505096
328.229706	36.045631
345.247589	124.281898
346.250946	28.44809
393.309448	426.316986
394.313416	95.252388
395.315552	12.02644
410.275726	31.256849
420.259216	14.49916
438.269653	1142.698975
438.461334	14.53933
439.272247	304.218903
440.274109	44.322201
478.395477	22.470671
506.393677	1179.109985
506.600922	13.67245
507.396393	401.692993
508.398071	72.737572
537.37384	185.312302
538.362976	173.363297
539.364014	50.0504
540.359192	11.59157
555.384827	8115.838867
555.599365	94.307587
555.664429	46.30051
556.387939	2823.514893
556.602722	50.21455
557.391052	547.528809
558.392212	64.136559
605.462036	2976.730957
605.686646	33.33189
606.465088	1305.626953
607.468018	272.765015
608.468628	38.197899
621.462585	12.78855
622.48407	13.10946
733.518372	166.729095
734.522461	88.813072
735.531372	24.64378
832.62439	851.728882
833.623474	679.85022
834.621948	245.867401
835.622192	53.203701
850.635437	2002.220947
850.896423	23.709261
851.638245	1245.149048
852.646301	785.161926
853.651855	257.902588
854.652649	25.212481
END IONS

BEGIN IONS
PEPMASS=424.9
CHARGE=0
MSLEVEL=2
SOURCE_INSTRUMENT=LC-ESI-Ger
FILENAME=20121115_Jenia_Ger_Stypoltrione_MH_425_qb.1.1..mgf
SEQ=*..*
IONMODE=Positive
ORGANISM=GNPS-LIBRARY
NAME=Stypoltrione M+H
PI=Gerwick
DATACOLLECTOR=Jenia
SMILES=N/A
INCHI=N/A
INCHIAUX=N/A
PUBMED=N/A
SUBMITUSER=mwang87
LIBRARYQUALITY=1
SPECTRUMID=CCMSLIB00000001599
SCANS=1
118.781204	10572.0
120.880081	38596.0
122.900589	32829.0
124.831055	28195.0
128.058105	14936.0
129.612488	12667.0
130.950226	20630.0
132.850494	81497.0
135.051285	24904.0
135.925354	7374.0
136.785645	121085.0
140.859222	17814.0
142.25972	37332.0
143.859177	20899.0
145.021881	195385.0
145.884338	19909.0
146.943481	202242.0
147.852814	3539.0
148.868454	68173.0
150.931076	54168.0
151.663879	27910.0
152.195129	17583.0
152.894943	3531689.0
154.429428	133958.0
156.020813	39311.0
156.813934	60728.0
157.359985	1.0
158.942856	327149.0
159.493225	64.0
160.169647	15204.0
160.909683	319821.0
161.622208	7.0
162.831024	147608.0
164.89682	161306.0
165.553314	3.0
166.81485	301265.0
167.346375	4516.0
168.587158	50243.0
169.79834	34537.0
170.974121	389394.0
171.546661	1.0
172.961258	306383.0
173.56665	1.0
174.984146	300666.0
175.552612	12.0
176.847443	562508.0
178.089905	13923.0
178.783829	209973.0
180.825134	504517.0
181.421021	6.0
182.085327	32697.0
183.066071	200667.0
183.766663	2.0
184.956467	436378.0
185.655533	2.0
186.921112	299035.0
188.896225	378978.0
189.472427	15.0
190.053406	9091.0
190.969681	221239.0
191.631134	23689.0
192.921463	204412.0
194.818375	126674.0
195.444427	3.0
196.980621	123538.0
198.290039	15864.0
199.041016	422155.0
200.936447	148089.0
201.583603	6627.0
202.818634	496562.0
203.685303	7218.0
204.977707	707466.0
205.619019	2.0
206.860336	157986.0
209.092834	72235.0
210.869354	201562.0
211.613342	1.0
213.046188	163941.0
214.979645	208608.0
216.3078	8156.0
216.903336	459804.0
217.540054	29.0
218.919662	185170.0
220.802246	86436.0
222.822723	19757.0
223.9422	7582.0
225.032394	193107.0
226.045517	5796.0
226.967468	394980.0
227.618179	11.0
228.876617	797506.0
229.459305	30524.0
230.970001	320384.0
231.612122	3.0
232.971664	202315.0
233.712799	8.0
234.79039	46208.0
236.99295	3416.0
237.835724	36946.0
238.983429	40777.0
240.853424	288770.0
242.266708	44298.0
243.031631	270239.0
243.749939	14.0
244.961761	787820.0
245.711777	20.0
246.932343	708445.0
247.42421	6548.0
248.886765	100507.0
249.538422	4.0
251.026077	58641.0
252.992172	870987.0
253.674316	9891.0
254.253204	8559.0
254.989044	1135475.0
256.326172	107132.0
257.005188	137375.0
258.938477	522268.0
259.752747	16700.0
260.923431	486764.0
261.616638	1.0
262.755768	43751.0
264.807922	67125.0
265.466675	2.0
266.916626	584114.0
267.699097	16953.0
269.002319	101873.0
270.180145	17648.0
270.963104	2284870.0
272.165009	155856.0
272.954803	7691020.0
273.617432	13826.0
274.971497	76855.0
276.888123	8573.0
280.027588	21117.0
280.913269	35460.0
283.069183	122712.0
284.924133	2608157.0
285.75827	2.0
286.795288	238268.0
287.015533	24278.0
288.856689	8610.0
291.143555	22251.0
292.838593	62856.0
294.705414	68992.0
296.027832	22461.0
296.958099	140851.0
297.588867	2.0
298.953674	317259.0
299.625	2.0
300.925446	105034.0
302.922485	60141.0
303.688843	1.0
304.821075	30617.0
307.472168	4495.0
309.081329	59458.0
310.949127	103219.0
311.68457	5469.0
312.93396	321608.0
313.627197	7.0
314.845062	149225.0
315.514282	2.0
316.763092	19312.0
319.078491	24598.0
320.95459	52861.0
322.08606	7350.0
323.075226	51552.0
324.312103	26170.0
324.979126	8796.0
326.845825	86079.0
328.937927	221743.0
329.619019	2.0
330.320251	13632.0
331.075562	8315.0
332.486969	30517.0
332.991028	57742.0
334.647583	47318.0
336.316772	31176.0
337.038116	200354.0
338.930786	363882.0
340.832825	168899.0
342.885132	62028.0
345.070679	26859.0
346.951782	19765.0
348.54071	9306.0
349.146667	8448.0
350.979401	126758.0
352.803223	80150.0
354.896454	138302.0
356.800781	3798.0
363.129578	4858.0
365.035156	122057.0
366.76767	151312.0
367.569153	4.0
369.04245	113025.0
370.957397	43965.0
379.00177	214050.0
380.886932	171586.0
382.904022	111307.0
388.998718	478774.0
389.757904	37.0
397.086517	99004.0
406.410706	97482.0
406.990997	6643554.0
407.808075	30.0
412.848206	4726.0
425.100342	53863.0
END IONS

BEGIN IONS
PEPMASS=348.155
CHARGE=1
MSLEVEL=2
SOURCE_INSTRUMENT=LC-ESI-qTof
FILENAME=B11.mgf
SEQ=*..*
IONMODE=Positive
ORGANISM=GNPS-LIBRARY
NAME=Oxepinamide A M+H
PI=Fenical-Jensen-Moore
DATACOLLECTOR=Max
SMILES=CCC(C)[C@]1(O)NC(=O)[C@@H](C)N2C(=O)C3=C(OC=CC(OC)=C3)N=C12
INCHI=InChI=1S/C17H21N3O5/c1-5-9(2)17(23)16-18-14-12(8-11(24-4)6-7-25-14)15(22)20(16)10(3)13(21)19-17/h6-10,23H,5H2,1-4H3,(H,19,21)/t9?,10-,17-/m1/s1
INCHIAUX=LNZVLFKJDOYTAA-VEJWXMCGSA-N
PUBMED=N/A
SUBMITUSER=mwang87
LIBRARYQUALITY=1
SPECTRUMID=CCMSLIB00000001600
SCANS=1
100.048981	33.28207
106.028	1932.089966
106.122002	38.30114
107.032433	213.380295
108.043785	1193.142944
108.141273	27.757099
109.047806	131.746399
109.07312	121.136703
110.059456	1664.43396
110.093262	371.890411
110.15773	38.783852
111.04834	222.323593
111.095093	84.591133
112.074341	46.84972
112.11013	49.202641
113.058144	128.801102
115.049484	1284.604004
116.052895	113.986397
117.057014	30.69837
118.025879	30.439501
118.065437	40.087662
119.069405	75.139214
120.043259	191.711594
120.078011	124.737297
121.03772	55.200878
121.075615	322.457886
122.026169	237.4729
122.058319	148.907501
123.043198	11226.080078
123.14624	220.434006
123.172363	80.728867
124.046951	1193.206055
124.150902	27.831421
125.052635	183.3927
125.104401	36.652069
126.055542	37.716671
127.049988	75.247627
128.057831	28.90626
129.067719	37.029331
130.06427	40.71418
131.059235	35.409599
132.074768	31.723511
133.012634	96.250832
133.056335	42.456982
134.022491	1685.69397
134.128983	34.568508
135.02803	267.632385
135.08754	68.104187
136.038452	2584.729004
136.148407	42.641449
137.04248	270.281311
137.106186	276.30481
138.053894	1763.753052
138.164154	32.330879
139.049118	280.362
140.045349	45.284
141.056015	28.744049
142.065979	27.73333
144.076538	30.91078
145.087738	66.970337
146.082764	27.604799
147.07869	65.765381
148.038406	279.979309
149.050629	99.270691
150.053818	2170.195068
150.16777	41.00462
151.032623	746.838684
152.035568	83.814903
152.064377	46.355549
153.101685	674.474182
154.103012	102.933998
155.11734	179.946304
156.080368	204.914703
157.084778	74.401588
158.065384	82.097313
159.080338	30.044451
160.080002	44.95665
161.070786	79.367897
162.05455	458.000397
162.099731	284.087006
163.078735	127.570198
164.072205	158.090103
165.100464	275.382904
166.048798	14391.709961
166.168274	283.912811
167.052017	1830.978027
167.171799	44.561661
168.055298	189.272507
170.061737	48.037338
171.08017	35.666779
172.076385	82.360901
173.082184	403.548096
174.087692	98.655144
175.07431	413.411011
176.074203	555.490295
177.072052	225.098602
178.049377	268.672699
178.087357	380.496613
179.053055	44.385029
179.101181	116.437897
180.110901	162.637405
181.096497	1232.005005
182.099747	164.939804
183.110977	578.340881
184.07399	354.964813
185.081879	191.455399
186.06395	196.206802
187.063995	74.539162
188.105179	1220.865967
189.100754	225.261398
190.096298	13550.410156
190.224121	225.931702
191.044403	54.610008
191.099243	2207.672119
191.226425	29.496719
192.100327	344.110107
193.059158	154.520706
193.104904	53.039902
194.064575	30.685471
198.091751	73.498138
199.083023	159.658798
200.071381	474.209106
201.077332	1588.142944
201.210556	30.469931
202.083435	392.235413
203.071136	141.570908
204.092072	116.1157
205.061584	168.391907
206.063461	45.754581
206.114563	113.985199
207.100327	29.68651
208.103424	45.03793
209.092499	29.451099
211.087402	32.696579
212.079056	76.038193
213.088608	127.080101
214.073654	480.1521
215.086624	225.070602
216.100662	26551.119141
217.103928	5220.178223
217.240433	83.36631
217.277756	38.164551
218.105606	713.015991
219.076767	406.827393
220.082565	380.829712
221.048248	31.88357
221.087769	94.200012
225.100647	55.965981
226.092529	109.619904
227.093292	183.000595
228.095291	227.086594
229.095551	112.253998
230.092072	278.659607
231.064728	843.924072
231.106964	377.191193
232.069382	330.492798
232.112198	151.073196
233.076599	97.061981
233.126984	1656.381958
233.266693	31.954691
234.126129	443.575104
235.117462	76.547546
236.069092	52.867828
236.100845	33.220589
237.085632	36.058731
239.079285	32.440891
240.105774	33.87619
241.092789	94.533043
242.111145	695.763977
243.112015	3231.733887
243.255478	52.780529
244.109192	1011.017029
245.099091	251.022705
246.085648	3318.195068
246.230698	47.701309
247.088089	763.869995
248.078506	154.949402
249.119217	104.169197
250.121185	27.413441
252.109497	29.974541
253.097748	42.03767
254.105896	111.478203
255.101639	126.439102
256.10553	399.235992
257.096558	570.504883
258.088684	847.270325
259.058289	689.99408
259.106812	1869.328003
260.065796	1439.613037
260.104584	625.762817
260.214874	28.21483
261.071075	286.145599
261.115112	238.560196
262.109528	146.004196
263.088287	140.473602
269.12738	1756.837036
269.279053	26.983101
270.124939	1474.67395
270.279236	31.83869
271.126282	382.11261
272.109528	197.445099
273.108887	483.854187
274.08252	4970.620117
274.149536	1740.745972
275.086029	1064.416016
275.153076	428.579498
276.063354	774.082275
276.133362	834.358398
277.063995	138.649002
277.118988	585.079407
278.129211	105.352097
279.12381	30.52268
280.10849	36.63982
283.095612	30.597679
284.106506	251.167603
285.122131	250.524796
286.08136	608.711975
286.15332	1473.484009
287.143036	543.443481
288.136536	186.471603
289.130249	44.068531
290.074615	296.178802
291.08371	1424.645996
292.08728	395.278992
293.092072	65.796707
297.113464	38.6632
298.11734	1048.738037
299.122406	454.2211
300.109711	158.976303
301.104614	1437.147949
302.148254	4834.015137
302.308807	78.831146
303.149597	1442.81897
303.414459	30.21847
304.149384	231.783401
305.142761	58.025639
312.133057	2015.770996
312.299316	34.533329
313.136383	817.490417
314.138184	125.059303
315.121216	556.544312
316.125702	182.499893
317.122162	34.269329
320.150879	29.235161
330.143799	14206.330078
330.310852	212.587799
331.144958	4553.27002
331.304718	64.33886
331.369293	28.47768
332.146057	811.27533
333.140228	109.484001
348.154022	2660.896973
349.162598	827.441223
350.16507	144.403397
END IONS

BEGIN IONS
PEPMASS=840.0
CHARGE=0
MSLEVEL=2
SOURCE_INSTRUMENT=LC-ESI-Ion Trap
FILENAME=20121201_PAVL_Ger_ApratoxinA_MH_840_qb.1.1..mgf
SEQ=*..*
IONMODE=Positive
ORGANISM=GNPS-LIBRARY
NAME=Apratoxin A M+H
PI=Gerwick
DATACOLLECTOR=PAVL
SMILES=CC[C@H](C)[C@H]1N(C)C(=O)[C@H](C)N(C)C(=O)[C@H](CC2=CC=C(OC)C=C2)NC(=O)\C(C)=C\[C@H]2CSC(=N2)[C@@H](C)[C@@H](O)C[C@H](C)C[C@H](OC(=O)[C@@H]2CCCN2C1=O)C(C)(C)C
INCHI=InChI=1S/C45H69N5O8S/c1-13-27(3)38-43(55)50-20-14-15-35(50)44(56)58-37(45(7,8)9)22-26(2)21-36(51)29(5)40-46-32(25-59-40)23-28(4)39(52)47-34(24-31-16-18-33(57-12)19-17-31)42(54)48(10)30(6)41(53)49(38)11/h16-19,23,26-27,29-30,32,34-38,51H,13-15,20-22,24-25H2,1-12H3,(H,47,52)/b28-23+/t26-,27-,29-,30-,32-,34-,35-,36-,37-,38+/m0/s1
INCHIAUX=KXUJXPZXILTXDA-JHMIWIOGSA-N
PUBMED=N/A
SUBMITUSER=mwang87
LIBRARYQUALITY=1
SPECTRUMID=CCMSLIB00000001601
SCANS=1
242.828094	17729.0
269.571777	53626.0
270.224976	12.0
276.280151	15709.0
293.975403	836.0
313.867432	16961.0
317.816406	796.0
327.757812	1232.0
329.920288	18194.0
330.896484	129655.0
343.266846	1795.0
345.161377	1715.0
348.870544	79123.0
356.878601	25216.0
358.915833	525223.0
360.295715	6536.0
372.029419	28376.0
372.985596	6882.0
390.207703	4231.0
395.117371	2192.0
396.099487	19643.0
397.049469	1521408.0
397.765869	63.0
400.009277	41026.0
413.168945	35813.0
425.155518	10086.0
442.275024	867.0
443.277832	27735.0
443.924591	2499098.0
444.582092	56.0
451.415405	1237.0
464.119568	110530.0
464.751465	5.0
467.883789	1104.0
479.802795	778.0
482.031464	2589371.0
482.773254	10.0
491.859009	44460.0
495.054718	56840.0
497.838257	1204.0
510.879944	25515.0
513.14032	84761.0
513.758545	14.0
525.904663	1336.0
526.852051	7210.0
536.428345	30145.0
554.121887	12088.0
560.032959	42734.0
571.008606	5995577.0
571.94812	2208.0
573.257324	4153.0
579.958191	345025.0
580.599976	13.0
584.780518	231.0
593.475586	2003.0
597.965759	187936.0
610.080017	495272.0
611.269043	2207.0
622.149658	11318.0
624.096436	1306.0
628.00238	380899.0
628.747803	11.0
629.534668	10533.0
637.816895	4222.0
640.200439	4303.0
641.220459	4417.0
641.855713	7439.0
644.105469	9873.0
707.091919	286937.0
707.853271	7.0
723.568115	1372.0
724.367676	30828.0
725.16333	797314.0
726.35144	1110.0
735.332764	2368.0
737.181152	12341.0
753.082275	13515.0
764.826172	1265.0
776.174561	1441.0
777.719604	2465.0
778.287781	8415.0
780.98291	266.0
781.946533	1070.0
794.265137	11975.0
796.158386	94780.0
807.01001	581.0
812.249878	1801.0
821.223022	24653.0
822.122742	4739129.0
823.029541	22.0
839.00238	24319.0
840.30835	454.0
END IONS

BEGIN IONS
PEPMASS=1062.61
CHARGE=1
MSLEVEL=2
SOURCE_INSTRUMENT=LC-ESI-qTof
FILENAME=C4.mgf
SEQ=*..*
IONMODE=Positive
ORGANISM=GNPS-LIBRARY
NAME=Thalassospiramide B M+H
PI=Fenical-Jensen-Moore
DATACOLLECTOR=Max
SMILES=CCCCCC\C=C/CC(=O)N[C@@H](CC1=CC=CC=C1)[C@@H](O)CC(=O)N[C@@H](C(C)C)C(=O)N[C@@H](CO)[C@@H](O)CC(=O)N[C@@H](C(C)C)C(=O)N[C@H]1COC(=O)[C@H](CC2=CC=C(O)C=C2)N(C)C(=O)[C@@H](NC(=O)\C=C\1)C(C)C
INCHI=InChI=1S/C56H83N7O13/c1-9-10-11-12-13-14-18-21-46(68)58-41(28-37-19-16-15-17-20-37)44(66)30-48(70)62-51(35(4)5)54(73)59-42(32-64)45(67)31-49(71)61-50(34(2)3)53(72)57-39-24-27-47(69)60-52(36(6)7)55(74)63(8)43(56(75)76-33-39)29-38-22-25-40(65)26-23-38/h14-20,22-27,34-36,39,41-45,50-52,64-67H,9-13,21,28-33H2,1-8H3,(H,57,72)(H,58,68)(H,59,73)(H,60,69)(H,61,71)(H,62,70)/b18-14-,27-24+/t39-,41+,42+,43+,44+,45+,50+,51+,52+/m1/s1
INCHIAUX=CRQZWNMPCIFJKX-AMXJBSLBSA-N
PUBMED=N/A
SUBMITUSER=mwang87
LIBRARYQUALITY=1
SPECTRUMID=CCMSLIB00000001602
SCANS=1
150.089905	21.204411
174.093399	28.802919
174.69899	10.075
189.91362	54.10083
195.107468	93.495697
196.092651	42.411671
203.137711	51.79211
206.082031	17.07692
207.084595	10.62813
213.121063	47.759998
228.131012	12.65333
231.131561	39.20435
249.157211	18.11368
260.088684	20.801279
266.182983	22.70435
273.167328	17.00037
277.144928	27.066669
291.131226	25.497561
292.12265	20.170679
295.160126	48.000851
302.177155	10.44444
312.19986	12.46944
326.203247	15.83307
330.195312	14.205
376.226379	20.480551
390.199707	202.903397
391.202148	50.27813
397.276917	38.688389
408.209442	13.34444
425.278137	59.256329
426.210022	16.950001
443.300232	28.474119
444.281006	11.24444
460.31131	10.02647
489.266235	519.758423
490.272186	176.388199
490.540649	10.20988
491.272858	23.15
538.311279	21.008329
556.329163	82.275002
567.271179	23.677589
574.345581	83.159561
575.353271	18.342859
602.315552	60.672058
603.385742	10.80833
609.385681	16.061741
610.396484	11.08333
614.311829	17.25625
616.490784	11.15294
617.570862	10.00833
617.973694	15.875
618.20105	13.00395
619.74115	10.75
620.326538	7581.87793
620.54895	79.863022
620.620605	37.24268
620.769165	27.84392
620.869141	32.602779
621.017273	34.313641
621.133362	32.203079
621.329895	2795.478027
621.562683	49.034031
621.743286	41.512501
621.866821	43.466999
622.036926	46.382729
622.334045	530.765076
622.475342	30.40167
622.640442	28.578699
622.737427	25.571939
622.808044	21.25473
623.021057	17.80714
623.326904	70.120003
623.497925	17.992861
623.730835	22.92803
623.871338	19.45435
623.940125	20.930639
624.098083	10.00357
624.329895	10.42227
624.416016	10.60952
624.503357	14.06923
624.980957	11.41894
625.138855	11.93846
625.324341	12.95372
627.402527	34.927341
637.392639	33.78788
638.393433	11.42155
645.426208	23.200399
655.407715	175.117996
656.405762	114.959198
657.122925	10.84444
672.446777	10.00068
673.414368	4078.268066
673.651611	43.36055
673.792969	24.098261
673.942383	22.632021
674.038452	16.603121
674.227234	28.89868
674.418701	1520.713989
674.725647	29.62689
674.819946	35.9674
674.912903	20.4
675.025024	21.25
675.135803	16.561069
675.19281	24.84474
675.421631	367.252289
675.716614	17.63476
675.935303	14.99527
676.065613	17.000759
676.318542	15.42812
676.419678	73.651161
676.511902	22.111361
676.605286	15.65435
676.734741	10.49423
679.98877	12.84615
691.443481	12.86722
719.400635	52.721119
720.380066	10.55921
728.269104	15.66875
735.204346	10.22812
794.745911	10.40523
802.180115	26.331579
819.295166	12.77895
821.519836	15.69808
823.479004	18.076469
839.52478	10.65
854.221191	11.45
855.72937	22.82008
857.229675	11.47378
867.519043	61.114811
868.516541	21.688931
869.533325	19.6129
872.600769	19.490311
873.960388	11.74444
892.104797	16.41136
892.480225	26.56802
898.030334	13.6381
926.864319	11.74405
933.180359	20.654051
945.221863	10.59239
949.56134	12.69706
962.662292	12.1967
976.426758	13.00988
976.671204	11.36824
991.146179	12.74569
995.529053	20.674999
1000.108459	14.8
1002.502747	22.800381
1011.903564	12.78526
1022.239746	13.75714
1026.579956	68.685707
1027.622437	41.390541
1028.239502	11.00227
1028.600464	47.947109
1030.049927	11.40217
1035.342285	10.20208
1036.715698	10.64706
1038.754395	10.80061
1043.284302	14.70637
1043.512085	14.44143
1044.147949	10.47778
1044.599243	2483.166016
1044.88208	26.400999
1044.995361	27.40167
1045.110352	24.05625
1045.309448	14.561
1045.465332	13.00238
1045.602295	1837.890015
1045.872314	41.98283
1046.117065	17.27206
1046.21521	21.65708
1046.601929	617.356018
1046.986084	28.480551
1047.165283	18.513639
1047.605225	142.905304
1047.946411	24.29826
1048.297363	10.61689
1048.393555	18.110821
1048.848877	12.41894
1049.058105	15.20643
1049.306519	16.424999
1049.504272	15.3811
1050.031006	15.01453
1050.161499	11.80417
1051.657227	15.41875
1051.976074	11.38409
1052.554565	13.728
1053.178345	10.64853
1053.488892	13.96333
1053.723877	13.1125
1054.129761	14.88269
1054.512939	10.82857
1054.699219	10.245
1055.144653	18.37895
1056.014771	10.45714
1056.668335	17.26207
1057.766479	10.41333
1059.043701	13.27035
1061.127686	12.05682
1062.273804	15.128
1062.610229	5728.638184
1062.913818	72.515717
1063.001587	49.029881
1063.193481	45.576469
1063.611816	4152.98584
1063.92981	80.637123
1064.179688	71.433777
1064.615845	1582.597046
1065.005737	58.70417
1065.119019	54.903191
1065.230469	29.799999
1065.410767	52.31303
1065.607544	281.765808
1065.809204	48.032139
1065.884888	53.464039
1066.039551	32.416019
1066.580444	41.402779
1066.722656	28.430771
1067.228394	22.424999
1067.408081	25.799999
1067.512695	11.41429
1067.634766	26.00806
1067.721069	20.08
1068.0271	14.14569
1068.178467	21.406429
1068.32251	16.87812
1068.631958	31.681669
1069.302246	11.4
1069.453369	17.040319
1069.60022	16.635
1071.208618	18.525
1099.445435	15.35872
1157.130127	13.85435
1175.973999	17.864519
1258.990967	14.88056
END IONS

BEGIN IONS
PEPMASS=862.0
CHARGE=0
MSLEVEL=2
SOURCE_INSTRUMENT=LC-ESI-Ion Trap
FILENAME=20121201_PAVL_Ger_ApratoxinA_MNa_862_qb.1.1..mgf
SEQ=*..*
IONMODE=Positive
ORGANISM=GNPS-LIBRARY
NAME=Apratoxin A M+Na
PI=Gerwick
DATACOLLECTOR=PAVL
SMILES=CC[C@H](C)[C@H]1N(C)C(=O)[C@H](C)N(C)C(=O)[C@H](CC2=CC=C(OC)C=C2)NC(=O)\C(C)=C\[C@H]2CSC(=N2)[C@@H](C)[C@@H](O)C[C@H](C)C[C@H](OC(=O)[C@@H]2CCCN2C1=O)C(C)(C)C
INCHI=InChI=1S/C45H69N5O8S/c1-13-27(3)38-43(55)50-20-14-15-35(50)44(56)58-37(45(7,8)9)22-26(2)21-36(51)29(5)40-46-32(25-59-40)23-28(4)39(52)47-34(24-31-16-18-33(57-12)19-17-31)42(54)48(10)30(6)41(53)49(38)11/h16-19,23,26-27,29-30,32,34-38,51H,13-15,20-22,24-25H2,1-12H3,(H,47,52)/b28-23+/t26-,27-,29-,30-,32-,34-,35-,36-,37-,38+/m0/s1
INCHIAUX=KXUJXPZXILTXDA-JHMIWIOGSA-N
PUBMED=N/A
SUBMITUSER=mwang87
LIBRARYQUALITY=1
SPECTRUMID=CCMSLIB00000001603
SCANS=1
330.985535	124250.0
331.856628	10035.0
349.940063	60206.0
352.737305	5846.0
354.822083	23377.0
356.846375	29293.0
358.86377	125038.0
359.836548	26862.0
360.732666	50321.0
372.174561	31596.0
379.014526	97213.0
380.39502	16227.0
390.840332	94358.0
393.904724	292611.0
394.896454	93820.0
399.881531	137978.0
411.97937	313343.0
419.140869	37186.0
419.851074	94679.0
422.121399	32738.0
422.882416	218632.0
424.35083	59964.0
431.152832	17708.0
434.284058	31184.0
436.996216	2485.0
438.141479	14961.0
438.659729	22887.0
439.943115	15017.0
440.806458	61344.0
442.329834	27560.0
444.073975	1010117.0
445.03833	191315.0
446.380005	49151.0
447.840576	34583.0
449.699097	42063.0
451.286499	48075.0
452.019196	500756.0
453.179138	371774.0
453.822144	72556.0
463.936218	18434.0
465.872772	494319.0
466.773285	544428.0
478.014282	33206.0
484.094879	1501778.0
485.012054	530313.0
485.569672	5.0
503.282013	87491.0
504.114166	891894.0
505.259644	263502.0
515.046143	16179.0
516.337158	18487.0
522.104492	24900.0
527.036621	59476.0
530.363647	46893.0
536.312744	151432.0
537.083618	2270204.0
538.088867	414669.0
538.811707	46.0
543.106812	49585.0
547.395508	45482.0
548.40033	112560.0
551.942383	38822.0
553.209351	12965.0
555.567932	25909.0
559.9729	63289.0
565.212646	64453.0
566.270081	104103.0
566.905884	10761.0
567.486633	57118.0
568.888306	7786.0
570.97998	1146436.0
571.994263	399687.0
573.525574	79893.0
574.248901	46532.0
576.325195	104985.0
577.280701	368152.0
577.888428	132414.0
581.0979	49020.0
592.380066	199870.0
593.089417	50146712.0
594.084412	17418400.0
594.879272	80.0
598.342529	83138.0
599.348999	20321.0
609.608398	31930.0
611.032959	1207082.0
611.996216	418577.0
619.187073	97226.0
620.213867	205399.0
621.117737	333308.0
621.829773	87385.0
624.095215	7560.0
632.306763	221696.0
633.463379	10124.0
636.150269	11061.0
637.423828	44040.0
638.220459	38927.0
665.154053	32577.0
680.124756	47182.0
681.214783	80380.0
682.225586	191143.0
691.226929	124407.0
691.883301	1.0
707.587769	164501.0
708.178101	49499552.0
709.198059	18181272.0
710.023804	128.0
724.608643	11163.0
725.154602	158145.0
729.234314	641660.0
730.17511	467323.0
730.731201	16.0
739.960571	94495.0
747.220947	7643963.0
748.18158	3176109.0
748.924316	78.0
751.628174	27761.0
766.456055	67567.0
774.189941	58495.0
774.897827	6305.0
775.434509	436203.0
776.065613	17898.0
801.188354	18736.0
807.521973	9285.0
815.408691	12464.0
844.29425	750814.0
845.211121	540732.0
845.814819	33.0
861.615845	950598.0
862.275696	110892808.0
863.273254	13371353.0
864.008362	145.0
END IONS

BEGIN IONS
PEPMASS=1084.59
CHARGE=1
MSLEVEL=2
SOURCE_INSTRUMENT=LC-ESI-qTof
FILENAME=C4_1.mgf
SEQ=*..*
IONMODE=Positive
ORGANISM=GNPS-LIBRARY
NAME=Thalassospiramide B M+H
PI=Fenical-Jensen-Moore
DATACOLLECTOR=Max
SMILES=CCCCCC\C=C/CC(=O)N[C@@H](CC1=CC=CC=C1)[C@@H](O)CC(=O)N[C@@H](C(C)C)C(=O)N[C@@H](CO)[C@@H](O)CC(=O)N[C@@H](C(C)C)C(=O)N[C@H]1COC(=O)[C@H](CC2=CC=C(O)C=C2)N(C)C(=O)[C@@H](NC(=O)\C=C\1)C(C)C
INCHI=InChI=1S/C56H83N7O13/c1-9-10-11-12-13-14-18-21-46(68)58-41(28-37-19-16-15-17-20-37)44(66)30-48(70)62-51(35(4)5)54(73)59-42(32-64)45(67)31-49(71)61-50(34(2)3)53(72)57-39-24-27-47(69)60-52(36(6)7)55(74)63(8)43(56(75)76-33-39)29-38-22-25-40(65)26-23-38/h14-20,22-27,34-36,39,41-45,50-52,64-67H,9-13,21,28-33H2,1-8H3,(H,57,72)(H,58,68)(H,59,73)(H,60,69)(H,61,71)(H,62,70)/b18-14-,27-24+/t39-,41+,42+,43+,44+,45+,50+,51+,52+/m1/s1
INCHIAUX=CRQZWNMPCIFJKX-AMXJBSLBSA-N
PUBMED=N/A
SUBMITUSER=mwang87
LIBRARYQUALITY=1
SPECTRUMID=CCMSLIB00000001604
SCANS=1
202.084488	49.76667
536.310364	74.125
861.504333	49.840832
907.500977	225.725693
908.519165	104.0504
973.144165	50.599998
1067.102051	44.09552
1073.126099	42.612499
1073.212891	50.50568
1073.471558	50.89946
1074.90686	51.029411
1075.750122	42.7225
1075.884521	43.522011
1076.110596	68.002838
1080.138428	42.500992
1084.590698	35997.71875
1085.59314	26015.359375
1086.595215	9056.267578
1086.904053	86.594612
1087.036987	89.051262
1087.132568	67.443939
1087.592407	2282.879883
1087.798584	84.979019
1087.873291	82.678497
1087.98877	109.839104
1088.197266	36.77076
1088.344849	106.992798
1088.428833	59.392921
1088.5979	137.399002
1088.746582	63.679211
1088.854126	47.42226
1088.978149	40.126961
1089.286255	70.350113
1089.737427	69.025307
1090.072754	45.656502
1090.403564	44.97134
1090.969482	51.6217
1091.234497	47.467251
1092.230347	55.00399
1092.510742	55.71875
1092.91748	43.979382
1093.43335	41.48349
1094.094727	38.020828
1094.375854	52.664959
1094.684082	36.503201
1101.003784	39.54348
END IONS

BEGIN IONS
PEPMASS=826.0
CHARGE=0
MSLEVEL=2
SOURCE_INSTRUMENT=LC-ESI-Ion Trap
FILENAME=20121201_PAVL_Ger_ApratoxinB_MH_826_qb.1.1..mgf
SEQ=*..*
IONMODE=Positive
ORGANISM=GNPS-LIBRARY
NAME=Apratoxin B M+H
PI=Gerwick
DATACOLLECTOR=PAVL
SMILES=CC[C@H](C)[C@@H]1NC(=O)[C@H](C)N(C)C(=O)[C@H](CC2=CC=C(OC)C=C2)NC(=O)\C(C)=C/[C@H]2CSC(=N2)[C@@H](C)[C@@H](O)C[C@H](C)C[C@H](OC(=O)C2CCCN2C1=O)C(C)(C)C
INCHI=InChI=1S/C44H67N5O8S/c1-12-26(3)37-42(54)49-19-13-14-34(49)43(55)57-36(44(7,8)9)21-25(2)20-35(50)28(5)40-45-31(24-58-40)22-27(4)38(51)46-33(23-30-15-17-32(56-11)18-16-30)41(53)48(10)29(6)39(52)47-37/h15-18,22,25-26,28-29,31,33-37,50H,12-14,19-21,23-24H2,1-11H3,(H,46,51)(H,47,52)/b27-22-/t25-,26-,28-,29-,31-,33-,34?,35-,36-,37-/m0/s1
INCHIAUX=ZSYPDXOLYNZQGO-CSWQYCJFSA-N
PUBMED=N/A
SUBMITUSER=mwang87
LIBRARYQUALITY=1
SPECTRUMID=CCMSLIB00000001605
SCANS=1
243.896271	126484.0
263.415894	40069.0
269.831238	1402212.0
270.683289	4.0
285.183716	52676.0
313.088379	92547.0
328.86438	53173.0
330.877808	1940248.0
331.534851	86.0
344.975708	144188.0
358.027588	101628.0
358.904541	8581864.0
359.570496	3249.0
364.736511	21093.0
368.907471	79376.0
383.010376	1208613.0
383.814819	9.0
389.225342	135474.0
389.887207	54648.0
399.964172	276577.0
442.119873	30981.0
442.984253	201434.0
443.906128	34565672.0
444.742249	52.0
450.049316	11613.0
467.355408	116983.0
468.016052	3860325.0
468.674561	109.0
473.316711	89188.0
494.937805	140206.0
513.19812	90444.0
544.098511	54644.0
556.250488	1626327.0
556.891602	36093296.0
557.818481	18.0
570.356323	20904.0
579.872803	120482.0
598.061279	305946.0
609.976562	437661.0
627.143066	58514.0
627.788452	200375.0
692.854614	266975.0
693.48877	3.0
710.99707	1171435.0
711.899902	2.0
798.107544	54528.0
808.15332	3320646.0
809.0	5.0
END IONS

BEGIN IONS
PEPMASS=610.416
CHARGE=1
MSLEVEL=2
SOURCE_INSTRUMENT=LC-ESI-qTof
FILENAME=C5.mgf
SEQ=*..*
IONMODE=Positive
ORGANISM=GNPS-LIBRARY
NAME=Emericellamide A M+H
PI=Fenical-Jensen-Moore
DATACOLLECTOR=Max
SMILES=CCCCCC[C@H](C)[C@H]1OC(=O)[C@H](C)NC(=O)[C@H](C)NC(=O)[C@H](CC(C)C)NC(=O)[C@@H](NC(=O)CNC(=O)[C@@H]1C)C(C)C
INCHI=InChI=1S/C31H55N5O7/c1-10-11-12-13-14-19(6)26-20(7)27(38)32-16-24(37)36-25(18(4)5)30(41)35-23(15-17(2)3)29(40)33-21(8)28(39)34-22(9)31(42)43-26/h17-23,25-26H,10-16H2,1-9H3,(H,32,38)(H,33,40)(H,34,39)(H,35,41)(H,36,37)/t19-,20+,21-,22-,23-,25-,26+/m0/s1
INCHIAUX=QURRTAYEASAREY-OOVPVTRWSA-N
PUBMED=N/A
SUBMITUSER=mwang87
LIBRARYQUALITY=1
SPECTRUMID=CCMSLIB00000001606
SCANS=1
112.111282	267.581604
115.085953	331.653015
116.070061	807.451172
117.100952	402.945801
126.090401	4181.025879
127.092888	290.693909
129.064743	271.028687
129.101212	628.985779
131.116272	195.874207
140.105362	250.625702
140.14183	498.928589
141.140228	181.399902
143.080368	402.082611
143.114075	251.500504
144.100174	1267.588013
155.080078	266.029907
157.095932	429.845398
157.13237	5554.370117
158.126251	686.427917
161.090881	14626.120117
161.209213	310.568512
162.09346	1205.732056
163.146698	253.637497
169.13147	242.999405
169.16806	209.964493
171.110977	1076.953979
181.15744	2254.167969
182.17305	231.872498
183.111298	185.996902
183.14827	600.100708
185.128754	27621.199219
186.131775	2868.016113
187.133636	284.742615
189.12207	2166.439941
190.12439	242.569305
197.12738	703.021973
197.161301	435.974915
198.183563	2146.436035
199.185303	333.968506
203.13768	2947.324951
204.14122	335.997314
210.183823	4813.166992
211.142868	1564.249023
211.179245	1533.706055
212.146973	224.444702
212.17897	169.459793
213.158386	13096.620117
213.294388	239.564407
214.161697	1661.255981
215.138306	818.124084
216.192673	289.594391
225.158554	1074.036987
226.159958	162.717194
228.133438	343.543396
228.191986	212.979095
229.15329	2333.718018
230.159531	293.466187
231.168869	400.628906
238.178894	18232.890625
238.321747	352.92569
239.178986	4581.361816
240.18103	564.580383
242.148743	671.813171
252.191559	260.14621
255.205856	2633.947998
256.188568	20056.310547
257.191315	3395.908936
258.194366	299.485992
260.15863	1430.324951
261.161499	309.312195
267.169495	561.062073
268.166229	285.389496
270.179352	1057.365967
271.179382	407.421814
273.215607	183.5383
274.174927	21576.310547
275.178284	3612.563965
276.179962	460.362793
281.220886	636.460022
284.195831	9005.421875
285.198425	1518.100952
286.197205	201.110199
287.231873	1532.472046
288.2341	292.078003
296.164825	3584.707031
297.167969	721.473328
299.170502	658.903381
302.205841	1257.359985
303.209229	221.535004
309.252228	20311.740234
310.252899	4228.399902
311.246521	472.683197
313.205078	349.079712
323.267334	433.227997
327.230713	3540.064941
328.225677	2378.469971
329.227234	441.275391
337.247375	154432.59375
338.250977	36743.898438
339.253601	4736.237793
340.255524	341.842712
341.21759	1213.900024
342.219788	318.904694
344.253357	4051.74707
345.256531	922.434326
346.258575	169.177399
351.26297	4125.12207
352.266541	993.809387
353.245667	754.200623
354.271912	747.254578
355.257935	44109.871094
356.261169	10323.549805
356.435364	160.561996
357.263855	1332.998047
358.267975	492.775604
367.199768	2695.091064
368.20343	696.399719
369.272919	1674.620972
370.272919	691.913025
373.243042	6488.366211
374.245911	1536.578003
375.248413	210.317596
380.258179	277.857086
384.259125	737.282104
385.25473	331.040405
398.279694	7328.115234
399.281799	1936.496948
400.282562	310.581909
404.325653	182.805298
408.284424	5965.666016
409.287048	1649.362061
410.295319	507.735504
412.254639	1157.729004
413.256378	346.83609
422.332153	8192.19043
423.336182	2847.824951
424.323303	807.169373
425.320374	211.245804
426.295258	10260.509766
426.483978	156.366501
427.298523	3164.687012
428.300903	545.786682
432.322418	189.986801
438.331787	345.33139
440.313721	4462.950195
441.316925	1335.36499
442.317841	256.761993
450.331787	99718.296875
451.335205	34182.269531
452.330536	7330.403809
453.325684	1278.44104
454.320496	188.1371
456.244659	208.874207
466.326843	5571.121094
467.332245	1860.71106
468.342163	41284.988281
469.343567	18623.849609
470.345154	3784.458008
471.346039	560.244019
479.322357	921.012329
480.324005	338.523987
483.353119	957.824829
484.354767	314.648987
493.352814	649.702576
494.358185	551.429626
495.357544	166.341797
497.332092	13423.040039
497.53418	196.962006
498.334808	4810.21582
499.338867	990.825623
503.3591	390.401093
504.359375	178.068604
507.316559	179.591202
511.359039	8166.646973
512.362183	3074.541992
513.364014	556.697388
521.368835	39186.261719
522.371948	15751.099609
523.375305	3139.413086
524.379822	451.509888
537.399292	1909.95105
538.401917	769.264404
539.379517	59821.890625
540.382446	23704.679688
541.385254	4589.23877
542.388367	563.117493
564.411438	423.417114
565.39502	11245.589844
565.609619	162.439407
566.398987	4644.331055
567.402527	971.796997
582.421326	28064.599609
583.424622	12145.910156
583.645203	166.288605
584.426819	2558.581055
585.42926	328.241486
592.405457	6952.876953
593.409119	3109.065918
594.411499	702.062073
610.416504	70364.421875
611.4198	31912.150391
612.421936	7091.744141
613.424561	999.781799
END IONS

BEGIN IONS
PEPMASS=632.398
CHARGE=1
MSLEVEL=2
SOURCE_INSTRUMENT=LC-ESI-qTof
FILENAME=C5_1.mgf
SEQ=*..*
IONMODE=Positive
ORGANISM=GNPS-LIBRARY
NAME=Emericellamide A M+Na
PI=Fenical-Jensen-Moore
DATACOLLECTOR=Max
SMILES=CCCCCC[C@H](C)[C@H]1OC(=O)[C@H](C)NC(=O)[C@H](C)NC(=O)[C@H](CC(C)C)NC(=O)[C@@H](NC(=O)CNC(=O)[C@@H]1C)C(C)C
INCHI=InChI=1S/C31H55N5O7/c1-10-11-12-13-14-19(6)26-20(7)27(38)32-16-24(37)36-25(18(4)5)30(41)35-23(15-17(2)3)29(40)33-21(8)28(39)34-22(9)31(42)43-26/h17-23,25-26H,10-16H2,1-9H3,(H,32,38)(H,33,40)(H,34,39)(H,35,41)(H,36,37)/t19-,20+,21-,22-,23-,25-,26+/m0/s1
INCHIAUX=QURRTAYEASAREY-OOVPVTRWSA-N
PUBMED=N/A
SUBMITUSER=mwang87
LIBRARYQUALITY=1
SPECTRUMID=CCMSLIB00000001607
SCANS=1
331.234741	461.111603
377.240051	884.140015
407.189667	420.728394
444.318298	994.000427
472.31427	324.304108
478.225708	1688.348022
479.228455	382.451691
490.323822	1935.478027
491.326843	384.491608
515.355225	1367.75
543.350281	430.033813
561.361328	8275.542969
562.364197	2012.842041
632.397827	317436.59375
633.401367	138751.90625
634.40448	28837.320312
634.628601	606.466125
635.407043	3418.927979
END IONS

BEGIN IONS
PEPMASS=848.0
CHARGE=0
MSLEVEL=2
SOURCE_INSTRUMENT=LC-ESI-Ion Trap
FILENAME=20121201_PAVL_Ger_ApratoxinB_MNa_848_qb.1.1..mgf
SEQ=*..*
IONMODE=Positive
ORGANISM=GNPS-LIBRARY
NAME=Apratoxin B M+Na
PI=Gerwick
DATACOLLECTOR=PAVL
SMILES=CC[C@H](C)[C@@H]1NC(=O)[C@H](C)N(C)C(=O)[C@H](CC2=CC=C(OC)C=C2)NC(=O)\C(C)=C/[C@H]2CSC(=N2)[C@@H](C)[C@@H](O)C[C@H](C)C[C@H](OC(=O)C2CCCN2C1=O)C(C)(C)C
INCHI=InChI=1S/C44H67N5O8S/c1-12-26(3)37-42(54)49-19-13-14-34(49)43(55)57-36(44(7,8)9)21-25(2)20-35(50)28(5)40-45-31(24-58-40)22-27(4)38(51)46-33(23-30-15-17-32(56-11)18-16-30)41(53)48(10)29(6)39(52)47-37/h15-18,22,25-26,28-29,31,33-37,50H,12-14,19-21,23-24H2,1-11H3,(H,46,51)(H,47,52)/b27-22-/t25-,26-,28-,29-,31-,33-,34?,35-,36-,37-/m0/s1
INCHIAUX=ZSYPDXOLYNZQGO-CSWQYCJFSA-N
PUBMED=N/A
SUBMITUSER=mwang87
LIBRARYQUALITY=1
SPECTRUMID=CCMSLIB00000001608
SCANS=1
379.05719	74934.0
415.211548	105106.0
439.23761	60720.0
443.907532	47741.0
483.90979	126862.0
490.136597	871534.0
490.803711	48635.0
513.11499	125129.0
514.40686	487063.0
535.274414	405968.0
550.814941	824333.0
551.996582	368187.0
578.491577	77320.0
579.118286	1356445.0
580.046631	194269.0
592.30957	74580.0
597.05835	2612296.0
598.154297	2024425.0
598.77002	130050.0
603.861084	54482.0
604.952271	374667.0
606.206055	362759.0
608.034302	60404.0
621.154663	268703.0
623.042236	580443.0
623.692871	50.0
638.572144	353568.0
639.213501	534351.0
640.04126	217372.0
650.254272	42776.0
651.03064	81142.0
668.322388	168374.0
687.23877	62721.0
694.223877	64228456.0
695.220459	20043552.0
696.105713	2.0
705.174805	313067.0
706.339355	382977.0
733.088501	661786.0
734.119263	378270.0
751.308594	1006441.0
752.357666	287639.0
753.000732	24.0
762.140869	123781.0
814.150513	86477.0
830.276489	1517848.0
831.34375	513716.0
832.021851	2.0
847.653442	1315568.0
848.25647	51350176.0
849.277832	2400815.0
850.250366	4.0
END IONS

BEGIN IONS
PEPMASS=440.088
CHARGE=1
MSLEVEL=2
SOURCE_INSTRUMENT=LC-ESI-qTof
FILENAME=C6.mgf
SEQ=*..*
IONMODE=Positive
ORGANISM=GNPS-LIBRARY
NAME=Cyanosporaside B M+H
PI=Fenical-Jensen-Moore
DATACOLLECTOR=Max
SMILES=[H][C@@]1(O[C@]23[C@@H](O)C=CC2=CC2=C3C=C(CC#N)C=C2Cl)O[C@H](C)[C@](C)(O)C(=O)[C@H]1O
INCHI=InChI=1S/C21H20ClNO6/c1-10-20(2,27)18(26)17(25)19(28-10)29-21-12(3-4-16(21)24)9-13-14(21)7-11(5-6-23)8-15(13)22/h3-4,7-10,16-17,19,24-25,27H,5H2,1-2H3/t10-,16+,17-,19+,20+,21-/m1/s1
INCHIAUX=YQLQWGVOWKPLFR-SFLKYZCSSA-N
PUBMED=N/A
SUBMITUSER=mwang87
LIBRARYQUALITY=1
SPECTRUMID=CCMSLIB00000001609
SCANS=1
111.008202	19.16877
111.041824	21.950729
122.0289	18.992411
123.039642	48.847698
125.017014	18.39826
134.030807	13.8984
135.041672	127.1166
139.051575	13.84202
152.061127	52.890808
153.062607	19.303379
180.041122	16.29397
181.045761	190.947296
182.048187	24.902901
187.029373	17.00123
190.067581	11.99535
197.04126	83.045883
198.043762	11.44217
199.056213	15.63733
202.027557	10.54013
206.66806	11.61094
207.067352	15.04043
215.022598	33.48616
242.034637	33.243382
244.030121	13.42053
264.016174	53.537601
265.024017	34.695728
266.021667	39.732059
267.02594	13.01043
282.027954	203.780396
283.031738	61.231659
284.027008	156.2771
285.032074	15.14214
285.997711	10.23686
310.0242	16.62715
340.031891	30.37089
341.034119	11.93616
342.033813	21.60256
350.689514	11.3487
352.036774	16.13315
440.08667	1615.390991
440.279419	18.742081
441.090424	537.521484
442.084778	993.640015
442.281952	20.17428
443.086823	240.173294
443.332001	34.573929
444.095673	10.88078
1300.357666	11.74454
END IONS

BEGIN IONS
PEPMASS=458.098
CHARGE=1
MSLEVEL=2
SOURCE_INSTRUMENT=LC-ESI-qTof
FILENAME=C6_1.mgf
SEQ=*..*
IONMODE=Positive
ORGANISM=GNPS-LIBRARY
NAME=hydrated Cyanosporaside B M+Na
PI=Fenical-Jensen-Moore
DATACOLLECTOR=Max
SMILES=N/A
INCHI=N/A
INCHIAUX=N/A
PUBMED=N/A
SUBMITUSER=mwang87
LIBRARYQUALITY=1
SPECTRUMID=CCMSLIB00000001610
SCANS=1
123.901802	24.042431
125.056038	11.0303
135.040115	33.52816
144.494583	14.12552
152.059921	35.617142
153.062195	11.83347
181.045395	46.2556
187.025909	12.58958
199.057602	209.109207
200.062012	17.17124
201.059891	10.38043
203.026932	11.45402
215.027756	40.099491
216.031677	17.59557
218.020905	12.87273
282.026764	60.609329
283.03006	10.62973
284.030243	19.173901
440.088837	264.874512
441.093079	129.973999
442.086761	176.751404
442.183624	10.61565
443.08667	51.947781
458.096893	713.889282
458.345856	10.96615
459.099731	194.771698
460.094177	486.382904
461.097107	80.024109
462.098755	13.7279
END IONS

BEGIN IONS
PEPMASS=398.244
CHARGE=1
MSLEVEL=2
SOURCE_INSTRUMENT=LC-ESI-qTof
FILENAME=C7.mgf
SEQ=*..*
IONMODE=Positive
ORGANISM=GNPS-LIBRARY
NAME=Salinisporazine A M+H
PI=Fenical-Jensen-Moore
DATACOLLECTOR=Max
SMILES=N/A
INCHI=N/A
INCHIAUX=N/A
PUBMED=N/A
SUBMITUSER=mwang87
LIBRARYQUALITY=1
SPECTRUMID=CCMSLIB00000001611
SCANS=1
100.05851	563.148682
102.045601	312.451813
103.054512	4764.870117
104.057381	630.693787
105.068916	182.972397
106.065735	395.750885
108.080849	318.723297
109.069283	149.878296
110.061745	140.242401
111.057571	885.324402
112.073372	468.83429
113.034393	545.17041
113.072449	204.561905
114.091255	901.853821
115.054085	4735.941895
116.05645	701.979675
116.10688	1072.550049
117.059479	2047.381958
118.065102	1736.621948
119.068703	153.503403
124.074951	501.984314
125.071854	147.580597
126.091095	1352.457031
127.050682	3798.22998
128.054459	2678.133057
128.104736	616.617676
129.068985	3140.025879
130.064987	139327.09375
131.06842	16424.519531
131.173996	280.401215
132.080002	6541.558105
133.083694	730.189392
137.107162	292.611115
139.049484	577.82373
140.052811	355.178314
141.06575	837.231995
141.100327	583.931274
142.065262	13648.75
142.176285	282.202087
143.071976	7573.824219
144.080551	18315.789062
144.191864	333.190002
145.083771	2721.531982
146.094147	563.58197
152.092148	141.156601
153.101959	573.309692
154.064713	4630.23584
155.072449	4791.73877
156.079147	4781.830078
157.078735	2654.561035
158.084518	1075.38501
159.091644	3306.933105
160.093506	501.71759
165.102203	523.178894
166.076645	204.660095
167.071396	1361.077026
168.080597	8519.52832
168.201752	160.395004
169.079666	10573.910156
169.197495	190.280701
170.064163	5419.009766
171.091644	2849.340088
172.093658	547.693176
173.107086	465.01239
180.079773	382.524811
181.091965	2005.255005
182.095596	5291.606934
183.106186	7474.89209
184.107407	1410.738037
185.071259	460.100006
185.107529	282.733093
193.087372	263.38269
194.095901	177.004196
195.098907	288.639496
196.111954	1039.659058
197.072342	459.43811
197.110596	359.354187
198.127472	16796.640625
198.257919	320.297485
199.08812	1413.935059
199.130341	4211.361816
200.119385	2165.794922
201.116714	1539.182007
202.119598	247.923798
208.107712	139.765396
209.071381	194.844498
210.10878	195.792801
211.098587	267.612488
218.128128	182.106201
225.067978	194.790207
226.121826	225.973007
228.113297	1189.858032
229.116135	267.0177
238.12149	258.523499
240.112656	397.16391
253.130554	272.628113
256.108246	3358.373047
257.111908	841.354797
267.149719	189.366394
268.1073	1168.040039
269.112823	371.050293
284.175476	774.609375
285.178497	220.691605
312.17099	4795.379883
313.173218	1620.312988
314.176514	280.239502
324.171173	657.61377
325.172882	225.444595
330.181763	2759.814941
331.183716	877.903381
332.188629	184.391205
342.182251	1771.084961
343.183716	746.059204
380.232361	181.968094
398.243561	144.413101
END IONS

BEGIN IONS
PEPMASS=420.226
CHARGE=1
MSLEVEL=2
SOURCE_INSTRUMENT=LC-ESI-qTof
FILENAME=C7_1.mgf
SEQ=*..*
IONMODE=Positive
ORGANISM=GNPS-LIBRARY
NAME=Salinisporazine A M+Na
PI=Fenical-Jensen-Moore
DATACOLLECTOR=Max
SMILES=N/A
INCHI=N/A
INCHIAUX=N/A
PUBMED=N/A
SUBMITUSER=mwang87
LIBRARYQUALITY=1
SPECTRUMID=CCMSLIB00000001612
SCANS=1
100.989342	29.23571
106.026917	21.768681
130.061432	28.682671
150.039566	958.995483
150.154968	18.85849
151.043747	122.954697
152.048889	17.315701
163.047089	87.995583
164.052475	24.34416
192.06459	12.01944
211.055634	11.98998
221.088425	66.391983
222.096893	360.662506
223.103424	86.275177
233.133621	13.00032
292.095551	19.367781
305.110199	12.28604
321.136444	21.003691
351.152191	54.689018
352.163635	460.283997
353.166534	120.010002
376.148865	12.5727
402.213226	22.21703
415.806366	11.9375
416.626953	15.91071
417.277649	11.75
418.204346	11.59556
420.055847	14.45833
420.226349	11444.709961
420.416077	157.033005
420.591187	11.72942
420.769989	33.33149
420.942535	25.20237
421.044891	20.3836
421.22995	4319.96582
421.423248	49.0546
421.541809	30.242319
421.65863	25.109461
421.749176	39.472382
421.937561	18.15037
422.074341	19.38275
422.232544	804.738525
422.3927	15.3229
422.436157	16.88608
422.492493	14.55292
422.609985	13.56507
423.020538	15.49766
423.237762	122.442299
423.482025	15.25328
423.637268	12.04797
424.360504	16.51687
424.423889	14.25621
424.703125	11.82909
425.35965	15.72509
425.712372	11.98429
691.099854	14.14881
783.455078	12.17857
END IONS

BEGIN IONS
PEPMASS=995.598
CHARGE=1
MSLEVEL=2
SOURCE_INSTRUMENT=LC-ESI-qTof
FILENAME=C8.mgf
SEQ=*..*
IONMODE=Positive
ORGANISM=GNPS-LIBRARY
NAME=Cyclomarin D M+H
PI=Fenical-Jensen-Moore
DATACOLLECTOR=Max
SMILES=C[C@H]1C(=O)N[C@H](C(=O)N[C@H](C(=O)N([C@H](C(=O)N[C@H](C(=O)N[C@H](C(=O)N[C@H](C(=O)N1)C[C@@H](C)CO)[C@@H](C2=CN(C3=CC=CC=C32)C(C)(C)C=C)O)[C@H](C)C=C(C)C)CC(C)C)C)C(C)C)[C@@H](C4=CC=CC=C4)OC
INCHI=InChI=1S/C55H80N8O10/c1-15-55(11,12)63-28-38(37-23-19-20-24-40(37)63)46(65)44-52(70)57-39(27-33(8)29-64)49(67)56-35(10)48(66)61-45(47(73-14)36-21-17-16-18-22-36)53(71)58-42(32(6)7)54(72)62(13)41(26-31(4)5)50(68)59-43(51(69)60-44)34(9)25-30(2)3/h15-25,28,31-35,39,41-47,64-65H,1,26-27,29H2,2-14H3,(H,56,67)(H,57,70)(H,58,71)(H,59,68)(H,60,69)(H,61,66)/t33-,34-,35+,39+,41+,42+,43+,44+,45+,46-,47-/m1/s1
INCHIAUX=N/A
PUBMED=N/A
SUBMITUSER=mwang87
LIBRARYQUALITY=1
SPECTRUMID=CCMSLIB00000001613
SCANS=1
100.112167	15284.570312
100.205116	309.937592
101.115768	1336.70105
102.089752	248.590393
103.052658	44.9184
105.03138	41.839531
112.077164	45.375359
112.112091	401.208405
113.113808	39.64423
117.056938	59.33942
118.064522	300.690399
120.080528	348.135315
121.064514	1369.887939
122.06916	158.182297
123.07785	67.643463
128.107132	1315.454956
129.108963	153.676407
130.076782	249.680893
131.053162	61.978401
132.080933	45.024479
139.087402	50.254021
140.107834	80.590134
144.079727	182.499802
145.132492	126.982101
146.059479	1523.380005
146.115906	355.017914
147.063904	160.136597
148.081451	41.12281
150.08905	468.240295
151.091934	91.631851
152.101685	55.381302
155.058807	124.377403
155.117249	391.231201
156.100952	1738.562012
157.08078	422.855591
158.078354	94.681427
160.109848	163.950195
161.110428	95.292549
169.091599	99.261749
171.149643	83.050598
172.106583	49.668549
173.126419	110.468201
174.126816	333.656311
175.129715	53.734711
182.093689	40.554451
183.05481	359.720001
183.112564	448.475403
183.183838	69.137863
184.060638	98.948067
184.111603	451.9245
185.070175	893.923584
185.115082	275.561615
186.072968	139.263306
189.102051	198.0215
191.117874	101.689003
195.051651	47.806881
195.108917	79.898048
197.072083	144.758606
198.125702	156.245605
199.143936	420.406799
199.176712	211.094299
200.070923	495.455414
200.153381	79.803574
201.122559	944.347412
202.119629	155.876694
204.135101	52.662731
208.113037	54.250351
210.148422	696.777771
211.092194	46.401249
211.151733	158.395798
214.104813	40.30994
217.097473	2635.501953
217.129395	1544.515991
217.23288	61.027901
217.269424	39.58437
218.102051	517.443909
218.13031	307.388611
219.115173	54.830009
221.127426	479.292389
222.130539	47.0728
223.128296	89.065559
225.156387	1815.516968
226.158615	418.876404
227.103699	134.910202
227.175201	2535.25293
228.1064	43.33802
228.177826	544.721619
229.18483	166.992493
234.140656	41.288101
237.130829	44.799419
239.109741	39.285511
239.211594	1524.642944
240.215363	329.187103
243.161194	58.821121
245.12825	3910.658936
245.273346	72.245689
246.130447	858.431824
247.133865	94.284607
249.157669	944.608215
250.124252	151.649994
250.160233	233.027496
251.136383	56.475479
252.151611	47.94508
253.143387	3955.375
253.303711	50.305809
254.143967	938.370789
255.145401	108.015602
257.185669	1677.610962
258.18927	382.315186
263.148102	73.705002
265.135345	88.600052
267.111847	127.355103
267.206665	460.902588
268.13974	95.102562
268.208344	160.352905
270.159973	195.191406
271.15094	193.801804
273.160095	64.125061
277.15509	840.249329
278.159668	178.056793
279.1492	235.776093
280.149353	117.239502
280.198669	88.771698
281.128204	792.074829
282.134979	176.537094
283.144287	45.38612
284.182526	51.53624
285.154205	86.393738
285.216766	60.47205
287.209259	64.894051
288.169708	184.625107
289.174438	77.951187
292.138702	42.587372
293.139465	65.52507
294.137024	40.143181
295.146454	42.510818
296.141663	193.539597
297.146027	80.761047
297.176239	71.580811
298.160675	147.630295
298.206879	142.788803
299.173828	42.141541
300.183472	39.28191
302.183044	41.923512
303.172058	45.751831
307.144348	540.297302
308.149353	196.092194
309.148865	73.04438
310.157074	42.149391
310.204651	51.192822
311.178406	95.9048
311.22757	53.837311
312.178772	40.004459
313.150604	61.160091
314.149963	599.809387
315.155426	122.113602
316.16626	3081.961914
316.33017	41.890629
317.168671	770.168884
318.177429	104.8582
319.180237	53.01635
320.202972	92.041862
321.196228	85.125923
324.182831	105.508202
325.178528	64.064468
326.157288	98.564133
327.184875	41.805031
328.165497	1396.821045
328.221985	1382.553955
329.169434	482.825989
329.225494	362.327209
330.177582	145.900497
330.220764	55.012871
331.213837	91.259132
332.21225	56.969181
333.192627	62.37611
335.17749	400.295105
336.189362	136.077103
337.192871	78.941963
338.242493	394.86441
339.241333	69.46521
344.196167	794.935181
345.206573	366.820007
346.179535	738.508118
347.199341	327.678894
348.198456	159.465302
349.191772	1303.300049
350.194397	463.408997
351.194885	91.040253
352.202545	59.53421
354.147461	40.0
354.219055	182.089905
355.224976	59.136829
356.19812	140.585999
356.247986	122.705597
357.202118	64.79306
357.252808	42.40625
358.171967	49.095718
359.228577	131.012894
360.190552	398.985901
361.196014	110.851601
362.207642	72.297203
364.201324	497.670013
365.207092	165.0914
366.268951	44.25938
367.173248	43.621929
368.180298	43.632969
372.22818	2805.278076
373.232361	964.63562
374.234344	180.283295
375.207245	2487.366943
375.386658	41.68359
376.212769	1170.28894
377.218842	246.628403
378.203888	183.1754
379.206543	57.746731
380.232513	97.827568
381.230835	45.917999
382.213409	1826.182983
383.215973	846.38208
384.223297	112.513901
385.193512	89.200089
386.188995	48.0541
387.229675	90.010033
388.225098	39.13393
392.236481	243.115097
393.240784	76.037781
395.167267	51.626621
398.180969	42.452789
398.247314	43.049049
399.238953	161.201797
400.231049	242.260803
402.216919	84.534637
403.2211	46.37785
404.255066	3201.566895
404.43924	40.415089
405.257629	1016.961975
406.262268	205.658295
408.228577	135.261505
409.235291	59.272812
410.242432	53.193291
414.237305	44.035011
415.270966	138.613907
416.273376	59.090912
417.247437	172.201996
418.248505	64.737068
420.229919	59.981941
421.23349	42.512241
425.266632	56.411461
427.235931	437.394012
428.233521	260.077789
429.221619	101.015404
430.219299	56.609859
430.265869	68.0
431.265289	127.237297
432.254852	101.556198
436.235931	132.326706
437.245789	113.4011
437.307739	41.52206
438.262421	44.985439
440.340912	39.768749
443.265137	2498.084961
444.270264	936.315186
445.246918	913.951416
446.247528	341.514313
447.296661	111.678902
448.296539	84.558823
449.275604	103.992302
450.289856	51.85965
451.271454	141.602997
452.277252	72.094017
453.25412	794.018677
454.25769	420.230103
455.258209	310.793396
456.271545	148.881393
457.28009	49.01236
459.258698	115.749298
460.254822	44.965309
463.287811	97.73275
465.31842	50.135639
467.227661	103.845398
467.312653	47.020802
469.230713	42.908272
470.237701	43.00074
471.231079	60.71122
473.275574	1568.272949
474.278961	677.781494
475.29187	9198.02832
475.490631	131.024704
475.545746	55.220921
475.69696	43.448769
476.008423	48.18837
476.294708	3460.199951
476.491852	48.172531
476.571442	40.512501
476.733276	42.191212
477.290253	838.913696
478.285583	169.271103
479.28653	94.294037
481.276001	56.93092
482.25296	44.481689
483.29657	830.064575
484.298187	288.257996
485.29364	92.945084
486.283966	57.500252
487.292908	96.956284
488.296478	130.463898
489.301483	91.805717
493.320984	43.883801
497.25528	78.094032
499.253784	55.429729
501.310333	42.83065
503.297913	62.653351
505.299683	338.91391
506.308655	88.069557
509.312317	181.515594
510.318085	109.546097
511.32312	77.877693
512.296448	45.816879
513.215088	90.551468
514.215271	49.388409
515.31897	45.708672
519.33313	3679.756104
519.542297	41.613041
520.336243	1869.86499
521.337891	431.889893
522.321472	73.571533
527.325073	74.540321
528.342773	46.76688
529.274536	39.086418
530.248535	62.37336
531.237793	44.069881
531.294495	42.535709
534.330811	39.645329
536.354797	43.12756
537.326599	83.021294
543.351868	122.656403
544.348267	243.659805
545.354187	63.23595
549.308777	152.625504
550.30603	89.110458
552.35083	45.318901
554.35083	120.304802
555.339233	147.3703
556.326965	41.094521
559.35083	126.708397
560.347778	74.936234
561.35437	58.493992
568.296753	63.214512
569.307739	41.605042
569.366394	84.323982
570.366455	46.105289
572.344238	4249.666992
572.55957	44.750851
573.347473	1711.582031
574.351501	446.862915
575.340454	59.165901
576.374695	215.050598
577.37854	111.036003
580.343384	191.546707
581.342041	93.252457
582.365662	1795.488037
583.368347	830.859375
584.36908	219.460602
586.363586	197.196198
587.359192	103.905502
590.376587	54.25037
592.351562	129.126007
593.353455	82.227898
598.308899	255.706802
599.312988	148.7966
600.313049	110.884003
602.345032	46.34816
604.370483	6060.844238
604.592651	79.804497
605.374207	2748.675049
605.599304	49.52644
606.377136	534.126404
607.379272	104.321404
608.354065	50.22224
612.357117	45.92244
614.390686	1357.027954
615.394592	526.5177
616.393799	182.563995
618.404419	257.81369
619.399353	121.125397
620.405029	61.43145
629.308533	64.004593
630.335815	124.877098
644.379578	75.822578
645.380005	72.08876
648.412598	1114.63501
649.414185	631.718628
650.421448	160.707306
651.390686	67.092216
656.382507	47.563099
657.353577	66.321281
658.344055	47.84259
679.3797	40.222351
680.361145	86.598961
681.385742	58.445271
695.386658	73.628227
696.393311	49.33987
697.371582	664.122314
698.373535	423.139801
699.375793	135.207001
711.440857	54.552502
712.418762	62.423828
719.450134	697.106812
720.452881	469.387787
721.454712	93.162231
725.40509	164.413498
726.40802	205.711899
727.416687	156.778793
728.423828	110.8209
729.399963	178.889404
730.405212	140.239197
731.397461	49.61161
747.475281	127.740196
748.483704	129.876602
756.40802	62.772919
757.431091	44.72308
763.452698	44.79237
764.456604	43.26149
778.439941	64.127197
779.446777	49.795921
789.427063	44.890629
795.48053	119.522697
796.468323	84.605087
797.456238	61.320919
810.47229	107.724403
811.483887	62.778881
818.522156	62.915001
819.523071	67.695213
824.470642	541.290771
825.471436	479.012604
826.477051	129.030899
828.503906	46.656689
834.490723	229.251007
835.495667	138.614197
836.486877	67.656578
839.481995	93.055794
840.476562	51.691479
844.500122	113.315804
845.496521	40.181702
856.49585	774.678528
857.500061	588.962524
858.498535	177.735703
864.499268	484.874786
865.50238	389.200806
866.516357	597.030029
867.518555	358.47879
868.513733	137.565201
895.504028	98.840073
896.516602	132.234604
897.533447	71.21125
919.556458	54.805328
927.534363	56.92004
928.531982	45.36203
929.547241	56.645061
935.574219	61.872082
936.569153	61.104912
937.593567	56.417549
945.572083	73.631767
946.557617	87.794006
947.559448	55.775841
950.574402	47.694561
951.580566	53.790321
963.571228	4933.810059
963.853699	52.334881
964.573547	4153.624023
964.849426	59.605469
964.955322	62.998081
965.125549	45.756618
965.576782	1356.329956
965.97699	50.315479
966.580627	328.911713
967.601746	75.309013
968.603516	70.171051
969.629944	38.877201
977.579651	118.567596
978.583191	169.457001
979.58374	52.7108
995.597229	8372.931641
995.872437	106.767899
996.034607	48.047352
996.600281	7140.509766
996.885498	103.183998
996.98877	98.756248
997.117065	81.376793
997.604309	2492.903076
997.85144	69.805
998.022888	65.517441
998.156494	57.908169
998.278076	62.788269
998.401794	58.556019
998.608459	552.21051
999.095398	47.490929
999.420776	40.175209
999.609253	62.18071
END IONS

BEGIN IONS
PEPMASS=1035.59
CHARGE=1
MSLEVEL=2
SOURCE_INSTRUMENT=LC-ESI-qTof
FILENAME=C8_1.mgf
SEQ=*..*
IONMODE=Positive
ORGANISM=GNPS-LIBRARY
NAME=Cyclomarin D M+H
PI=Fenical-Jensen-Moore
DATACOLLECTOR=Max
SMILES=C[C@H]1C(=O)N[C@H](C(=O)N[C@H](C(=O)N([C@H](C(=O)N[C@H](C(=O)N[C@H](C(=O)N[C@H](C(=O)N1)C[C@@H](C)CO)[C@@H](C2=CN(C3=CC=CC=C32)C(C)(C)C=C)O)[C@H](C)C=C(C)C)CC(C)C)C)C(C)C)[C@@H](C4=CC=CC=C4)OC
INCHI=InChI=1S/C55H80N8O10/c1-15-55(11,12)63-28-38(37-23-19-20-24-40(37)63)46(65)44-52(70)57-39(27-33(8)29-64)49(67)56-35(10)48(66)61-45(47(73-14)36-21-17-16-18-22-36)53(71)58-42(32(6)7)54(72)62(13)41(26-31(4)5)50(68)59-43(51(69)60-44)34(9)25-30(2)3/h15-25,28,31-35,39,41-47,64-65H,1,26-27,29H2,2-14H3,(H,56,67)(H,57,70)(H,58,71)(H,59,68)(H,60,69)(H,61,66)/t33-,34-,35+,39+,41+,42+,43+,44+,45+,46-,47-/m1/s1
INCHIAUX=N/A
PUBMED=N/A
SUBMITUSER=mwang87
LIBRARYQUALITY=1
SPECTRUMID=CCMSLIB00000001614
SCANS=1
100.112114	36.0
110.098717	14.42886
120.079613	12.62704
121.063919	25.41585
124.074608	13.80864
128.433136	33.40625
202.104233	11.26255
225.133072	11.41508
253.138275	16.433901
266.802246	11.40743
327.174561	14.82716
351.21759	11.72414
359.160126	11.30402
372.192932	16.890631
378.204102	16.00016
378.423035	32.900002
386.247467	10.71175
387.249756	10.37926
396.367554	14.18952
422.238831	10.96018
425.185669	17.390631
429.177185	11.80104
444.216309	11.23438
445.242493	10.00024
447.297241	10.63281
455.218353	10.39163
457.239136	21.32049
471.257599	55.783951
472.251465	14.50391
473.56601	10.75937
497.24292	32.040871
498.23877	12.93892
508.753632	12.83501
514.26947	12.5199
518.775513	36.7826
519.286438	24.111139
519.768311	12.70156
520.25647	14.41328
524.759338	17.29236
525.269836	22.875669
525.768494	13.53509
526.262878	16.617359
528.273499	11.19755
529.267639	10.82143
530.290833	14.99391
545.271851	16.913601
554.263184	11.07105
556.276245	20.55607
556.328979	14.4321
557.295166	10.6806
571.298706	11.60022
572.333435	18.251301
584.281616	11.23678
598.392212	14.37776
601.330017	15.23101
612.261719	12.645
614.386414	12.15938
616.404114	15.92778
624.335449	16.6472
625.329712	17.626829
625.410706	11.09608
626.343384	19.592621
632.282959	11.66447
637.288513	10.13021
640.345276	12.52273
643.369202	24.625259
644.378967	14.51563
652.300842	10.57004
658.348572	10.80625
663.401672	13.25327
668.350952	12.5076
675.392639	13.7207
684.345337	10.00165
691.428284	16.50017
695.295715	11.00737
695.428223	15.15604
696.334351	34.63522
697.350281	17.03087
709.356934	13.15104
718.367249	16.784031
719.429993	11.25047
719.778503	32.65313
720.018677	10.26735
720.466248	11.12723
721.385315	11.34722
723.373474	13.3814
724.353821	14.29167
725.38501	23.4608
734.449524	12.27381
736.381653	14.22222
737.464417	46.000179
738.454041	11.47059
747.427551	16.33008
762.450378	16.29167
763.427246	43.979939
764.437256	40.292969
765.370422	11.25
765.455261	20.978451
767.369934	14.51002
772.434387	18.734381
778.434998	61.170872
779.445984	27.86133
780.423096	15.22199
790.444824	146.818604
791.452209	60.52079
792.440552	34.818878
792.525635	17.47414
793.459412	11.20949
794.479797	175.614197
795.482788	102.393501
796.481995	11.07813
800.473511	14.50381
803.450134	10.61227
804.451416	36.480831
805.470093	42.929218
806.473328	42.378429
807.4776	21.29397
817.332825	10.98755
820.445251	12.2982
821.438782	39.042099
822.47406	1996.255005
823.478271	1645.074951
823.810242	20.87001
824.091797	23.30884
824.477966	397.184906
824.721558	21.29397
824.826233	14.49589
824.948486	19.35256
825.083862	10.35938
825.480042	85.88974
825.727722	21.4
825.851746	21.632971
825.917114	10.55696
826.491028	16.289471
834.44635	10.96194
850.467346	84.728813
851.476501	107.056297
852.464417	27.75
855.413147	11.2576
881.365784	10.82721
888.414124	10.77943
889.457947	18.292971
890.446228	19.00878
893.436035	12.25343
894.446472	14.33621
895.445007	11.22962
902.18811	13.49265
912.452332	10.75417
928.497498	10.81382
930.378357	12.79348
933.47113	20.98535
936.489075	10.65443
949.507629	12.38453
951.559143	10.22228
963.566711	12.23616
985.53363	20.848301
986.558167	38.43182
989.578064	22.52145
990.573425	20.4951
1003.553772	23.976851
1004.565674	51.494789
1008.605347	15.98684
1017.575623	890.624329
1017.854309	17.00703
1018.297852	10.94118
1018.582458	1133.151001
1019.246582	15.01394
1019.402222	16.52
1019.58728	287.480011
1020.085815	13.36765
1020.15918	11.24704
1020.578979	67.957649
1021.570862	11.0004
1022.732239	12.38453
1024.642944	11.35
1025.46936	10.06392
1027.361328	11.85776
1027.771118	12.63158
1028.608276	10.4082
1028.663574	10.17668
1033.291748	10.13843
1034.891968	13.92769
1035.078125	16.697371
1035.5896	7867.644043
1035.871826	77.564827
1035.970703	42.578129
1036.106689	51.080132
1036.334351	43.967979
1036.592651	7659.451172
1036.890381	126.598503
1036.959229	104.954903
1037.098633	75.941483
1037.305176	72.25087
1037.59436	2690.069092
1037.884766	81.435623
1037.984253	74.897522
1038.182007	61.414501
1038.595337	713.191772
1038.862061	58.625
1039.053345	53.956821
1039.21228	38.89576
1039.449829	38.13438
1039.591187	95.475349
1039.752563	37.641361
1039.824097	34.158482
1040.114868	32.045101
1040.545166	28.9014
1040.789917	26.701191
1041.19397	18.543751
1041.418335	23.64459
1041.808472	19.253469
1042.129028	13.0329
1042.643555	10.63437
1043.236206	10.89881
1044.801147	12.50256
1045.645874	13.12069
1047.521973	12.04801
1053.375	10.25521
1058.522217	23.83534
1058.647461	10.74049
END IONS

BEGIN IONS
PEPMASS=323.258
CHARGE=1
MSLEVEL=2
SOURCE_INSTRUMENT=LC-ESI-qTof
FILENAME=C9.mgf
SEQ=*..*
IONMODE=Positive
ORGANISM=GNPS-LIBRARY
NAME=Pacificanone A M+H
PI=Fenical-Jensen-Moore
DATACOLLECTOR=Max
SMILES=CC[C@H](O)[C@H](C)\C=C(/C)\C=C\[C@]1(O)[C@@H](C)C[C@@H](CC)C(=O)[C@@H]1C
INCHI=InChI=1S/C20H34O3/c1-7-17-12-15(5)20(23,16(6)19(17)22)10-9-13(3)11-14(4)18(21)8-2/h9-11,14-18,21,23H,7-8,12H2,1-6H3/b10-9+,13-11+/t14-,15+,16+,17-,18+,20+/m1/s1
INCHIAUX=JSPPQWVTDRBUIB-VGPDEBLWSA-N
PUBMED=N/A
SUBMITUSER=mwang87
LIBRARYQUALITY=1
SPECTRUMID=CCMSLIB00000001615
SCANS=1
103.052773	63.64045
104.056351	26.392759
105.06942	447.975189
106.074173	42.14669
107.046021	22.712799
107.085106	406.249298
108.054977	71.56662
108.088852	92.72924
109.065773	90.940567
109.099548	113.703003
110.069145	25.912109
110.103737	24.959909
111.077972	22.260639
113.095306	82.853333
114.097977	18.777781
115.052094	52.631519
116.062958	19.68376
117.070045	67.400223
119.084488	176.665604
120.087158	13.67521
121.062347	49.727169
121.099838	228.218704
122.070045	17.98877
122.100464	42.371971
123.080055	219.353699
123.111549	68.187683
124.083092	44.710159
124.119087	22.093889
125.093399	18.26087
127.076805	28.95248
128.063263	12.54167
129.06897	36.80349
130.078659	36.21825
131.084412	59.093361
133.101593	48.84684
135.080002	486.431
136.083099	86.563469
137.096512	81.294769
137.131256	29.2649
138.103119	14.70514
139.071442	33.26667
139.110199	38.265869
141.125717	408.637512
142.072556	26.34981
142.130066	119.850098
143.08577	22.34573
144.091782	16.37468
145.100739	55.010479
146.103104	16.93968
147.116135	266.534485
148.118118	45.14085
149.097549	39.15686
149.127701	29.156481
155.079147	11.22299
157.098022	23.099211
158.104904	16.81752
161.095093	15.8048
161.130264	18.69298
162.133118	19.28863
163.109833	14.81281
165.128448	170.141495
166.132675	49.667629
166.163055	14.36458
168.024536	13.43056
168.05217	15.28143
169.122025	65.504204
170.1203	23.577869
173.128204	22.404671
175.116272	13.59559
177.126648	19.31427
177.163025	14.28003
187.149857	19.642401
188.140793	10.25794
199.046722	13.37418
201.163788	22.0051
205.154495	41.720032
214.160202	11.51678
224.170364	20.406401
284.295929	13.53742
325.227478	20.386709
END IONS

BEGIN IONS
PEPMASS=345.24
CHARGE=1
MSLEVEL=2
SOURCE_INSTRUMENT=LC-ESI-qTof
FILENAME=C9_1.mgf
SEQ=*..*
IONMODE=Positive
ORGANISM=GNPS-LIBRARY
NAME=Pacificanone A M+Na
PI=Fenical-Jensen-Moore
DATACOLLECTOR=Max
SMILES=CC[C@H](O)[C@H](C)\C=C(/C)\C=C\[C@]1(O)[C@@H](C)C[C@@H](CC)C(=O)[C@@H]1C
INCHI=InChI=1S/C20H34O3/c1-7-17-12-15(5)20(23,16(6)19(17)22)10-9-13(3)11-14(4)18(21)8-2/h9-11,14-18,21,23H,7-8,12H2,1-6H3/b10-9+,13-11+/t14-,15+,16+,17-,18+,20+/m1/s1
INCHIAUX=JSPPQWVTDRBUIB-VGPDEBLWSA-N
PUBMED=N/A
SUBMITUSER=mwang87
LIBRARYQUALITY=1
SPECTRUMID=CCMSLIB00000001616
SCANS=1
105.002411	15.5571
105.069511	31.25074
107.084091	27.111139
108.012077	19.44483
119.080933	15.70373
125.090996	14.69412
131.081757	25.077021
133.098953	28.551439
137.094406	15.00923
143.080383	20.19565
147.109329	12.63678
156.083649	14.31705
157.283478	17.530649
159.118256	12.2712
166.07399	13.83164
171.119202	11.52941
172.617233	11.084
183.040817	10.56099
185.054199	11.9
217.151627	13.09821
245.150146	49.746578
246.153656	16.098169
247.59877	16.780279
285.151184	11.61155
287.193481	18.5625
327.233978	20.418961
345.240356	3075.312012
345.412415	39.672138
345.842163	14.80256
346.243652	1038.302002
346.421082	18.7642
346.57959	11.0319
347.08728	11.84375
347.147797	14.03958
347.250763	250.472198
348.191406	11.82288
348.254028	31.446421
1292.123169	18.92042
1343.753784	15.3339
END IONS

BEGIN IONS
PEPMASS=727.32
CHARGE=1
MSLEVEL=2
SOURCE_INSTRUMENT=LC-ESI-qTof
FILENAME=c11.mgf
SEQ=*..*
IONMODE=Positive
ORGANISM=GNPS-LIBRARY
NAME=Piperazimycin A M+H
PI=Fenical-Jensen-Moore
DATACOLLECTOR=Max
SMILES=[H][C@]12C[C@@H](O)CNN1C(=O)COC(=O)[C@](C)(CO)NC(=O)[C@]1([H])C[C@H](O)CNN1C(=O)[C@@]1([H])C[C@H](Cl)CNN1C(=O)[C@H](C\C=C\C=C\C(C)C)NC2=O
INCHI=InChI=1S/C31H47ClN8O10/c1-17(2)7-5-4-6-8-21-28(47)40-24(9-18(32)12-33-40)29(48)39-23(11-20(43)14-35-39)27(46)37-31(3,16-41)30(49)50-15-25(44)38-22(26(45)36-21)10-19(42)13-34-38/h4-7,17-24,33-35,41-43H,8-16H2,1-3H3,(H,36,45)(H,37,46)/b6-4+,7-5+/t18-,19+,20-,21-,22+,23-,24+,31-/m0/s1
INCHIAUX=OHBCWVJHZZYAHJ-QODGRZNGSA-N
PUBMED=N/A
SUBMITUSER=mwang87
LIBRARYQUALITY=1
SPECTRUMID=CCMSLIB00000001617
SCANS=1
56.049744	196.676697
68.050667	475.808899
74.060684	911.136414
83.061478	476.668213
84.046997	172.348495
85.07711	424.791504
86.060379	128.882507
95.084999	219.421997
101.071495	2703.825928
110.061974	153.4608
113.071426	231.587799
119.037697	483.964508
120.067795	161.518295
121.051712	143.504395
129.066132	396.952209
136.111755	132.136703
138.128326	2721.761963
139.131012	313.528015
141.06572	456.928314
149.095016	729.632874
156.066238	146.516205
157.061172	356.058685
158.093216	174.711807
159.077103	3980.726074
160.080521	281.042908
164.058456	978.889404
164.099243	157.602493
166.056885	201.570297
166.121719	280.337311
167.081635	563.924377
168.07637	214.617294
169.060944	380.665192
172.092072	134.021896
175.027924	493.13031
177.088074	130.147202
184.112396	214.351105
185.092468	1178.359009
186.090088	495.059906
187.071762	6316.199219
188.07193	577.143494
195.076736	2079.707031
196.078949	196.188904
200.099854	264.208313
204.098663	226.498901
211.107025	149.883499
212.057526	129.815903
212.105087	184.633194
213.08754	7329.770996
214.090637	857.754578
215.098907	131.921799
215.153717	128.048096
222.087006	326.063904
224.10585	136.865997
228.098846	335.130493
229.088776	170.551697
230.072006	193.263199
230.112961	495.831085
231.151062	148.505203
239.121063	142.7798
247.095566	810.290527
248.121445	205.215698
249.096268	267.315399
249.158066	173.945908
252.096512	239.6987
267.126862	817.726501
268.093872	204.626801
268.126434	136.6828
269.127747	148.648697
270.108826	660.875305
271.109436	143.697403
275.091583	2324.272949
276.094025	304.045502
277.089203	532.155518
277.154327	152.935806
278.187653	635.6745
285.181244	158.472
287.137115	363.526215
288.121399	457.399811
293.103516	198.427094
294.177917	137.296799
295.121826	1875.034058
296.126038	357.373108
297.1203	571.536926
298.107086	176.595703
305.145782	569.875183
306.181244	799.183105
307.185516	188.9142
312.148224	1646.928955
313.147827	291.622589
314.141998	438.737701
324.192444	1011.83197
325.198059	178.966705
329.174774	2066.413086
330.140717	1717.541016
331.16803	897.423218
332.139374	473.200592
334.177094	1235.901978
335.178223	272.497894
346.128662	244.979706
348.144409	2197.784912
349.146637	364.324493
350.150757	576.396423
352.187897	6451.359863
353.190887	1137.235962
354.194	139.145996
363.131805	329.515594
376.139038	18751.589844
377.141968	3487.299072
378.137299	6390.696777
379.140076	919.742371
380.157867	179.981598
381.144104	128.716095
394.150543	4368.154785
395.15448	672.376404
396.147583	1373.223022
397.155853	182.292603
406.150635	228.132294
413.236755	191.852402
415.19928	155.134094
416.179169	132.435699
423.1828	365.012207
425.239563	292.765686
431.204559	435.804413
433.202728	670.305603
434.205627	176.566299
435.224548	367.908691
436.225677	133.700302
440.206055	1369.69397
441.206238	417.285614
442.207306	337.548187
451.171478	2016.719971
452.179504	486.664886
453.16861	727.676025
453.233429	1467.910034
454.233002	523.951416
458.22049	539.131226
460.221344	158.115402
463.218323	198.427597
470.216766	165.352997
471.237732	150.562897
479.218475	213.875702
480.205963	585.458374
481.203308	256.304901
482.203064	258.877411
495.249817	620.176086
496.241638	456.030609
497.242035	569.498779
498.213318	13745.540039
499.215454	3999.782959
500.2117	4824.362793
501.214661	995.361084
504.247711	123.255699
511.239899	210.178207
513.260315	878.900879
514.258057	335.338501
515.243286	1103.973022
516.222168	356.182098
517.237183	443.444794
518.230591	125.067802
524.228027	652.768677
525.23761	273.557587
526.225647	289.226105
527.236938	143.102097
528.246765	848.516418
529.251709	305.697998
541.255737	13768.620117
541.469421	184.060501
542.256592	4684.667969
543.253479	5321.770996
544.19635	2217.746094
544.244629	1556.884033
545.197876	705.82959
546.195435	1119.733032
547.196533	234.755295
559.266052	83951.023438
560.269043	26023.929688
561.264221	32687.949219
562.265808	7188.196777
563.269958	561.15802
564.215515	482.7005
566.217773	159.906601
579.279846	323.84491
580.272766	431.138702
581.281311	388.486389
582.271423	184.033005
583.261414	142.291504
598.276062	324.823486
599.264832	477.25061
600.268677	234.349197
601.265564	313.372589
608.258118	404.211304
609.25708	159.917801
610.261353	215.275604
617.212646	511.026886
618.213684	205.910599
619.210754	227.3806
626.270508	1021.106018
627.27533	404.777802
628.272644	470.879791
655.322266	478.194885
656.324158	256.446289
663.330383	294.386414
664.310669	143.649704
665.30249	140.243393
666.304016	383.330688
667.307068	128.388504
673.331482	184.454193
674.282349	333.485107
675.27533	147.938599
679.297668	222.316299
681.314087	3048.066895
682.315735	1450.781006
683.315125	1501.130981
684.313293	508.224487
691.30304	2154.843994
692.306335	998.280579
693.297607	952.120972
694.299438	331.143799
699.324585	7801.694824
700.326416	3214.14502
701.322815	3355.571045
702.324524	917.404602
709.308716	27651.380859
710.311951	12088.299805
710.546875	152.599503
711.307495	12600.540039
712.307922	3732.23999
713.308655	335.750305
727.320129	120044.398438
728.32312	51075.320312
729.320129	59167.570312
730.321899	16759.259766
731.310486	1674.89502
END IONS

BEGIN IONS
PEPMASS=749.288
CHARGE=1
MSLEVEL=2
SOURCE_INSTRUMENT=LC-ESI-qTof
FILENAME=c11_1.mgf
SEQ=*..*
IONMODE=Positive
ORGANISM=GNPS-LIBRARY
NAME=Piperazimycin A M+Na
PI=Fenical-Jensen-Moore
DATACOLLECTOR=Max
SMILES=[H][C@]12C[C@@H](O)CNN1C(=O)COC(=O)[C@](C)(CO)NC(=O)[C@]1([H])C[C@H](O)CNN1C(=O)[C@@]1([H])C[C@H](Cl)CNN1C(=O)[C@H](C\C=C\C=C\C(C)C)NC2=O
INCHI=InChI=1S/C31H47ClN8O10/c1-17(2)7-5-4-6-8-21-28(47)40-24(9-18(32)12-33-40)29(48)39-23(11-20(43)14-35-39)27(46)37-31(3,16-41)30(49)50-15-25(44)38-22(26(45)36-21)10-19(42)13-34-38/h4-7,17-24,33-35,41-43H,8-16H2,1-3H3,(H,36,45)(H,37,46)/b6-4+,7-5+/t18-,19+,20-,21-,22+,23-,24+,31-/m0/s1
INCHIAUX=OHBCWVJHZZYAHJ-QODGRZNGSA-N
PUBMED=N/A
SUBMITUSER=mwang87
LIBRARYQUALITY=1
SPECTRUMID=CCMSLIB00000001618
SCANS=1
620.259338	1052.463989
749.301758	709434.625
750.30481	297162.3125
751.300903	318300.8125
752.303284	85482.640625
752.548096	1929.303955
752.646729	732.443115
753.30426	4615.15918
END IONS

BEGIN IONS
PEPMASS=404.131
CHARGE=1
MSLEVEL=2
SOURCE_INSTRUMENT=LC-ESI-qTof
FILENAME=c12.mgf
SEQ=*..*
IONMODE=Positive
ORGANISM=GNPS-LIBRARY
NAME=Actinoquinolone A M+H
PI=Fenical-Jensen-Moore
DATACOLLECTOR=Max
SMILES=N/A
INCHI=N/A
INCHIAUX=N/A
PUBMED=N/A
SUBMITUSER=mwang87
LIBRARYQUALITY=1
SPECTRUMID=CCMSLIB00000001619
SCANS=1
55.019207	266.630493
55.055618	1777.008057
56.050835	1306.277954
57.071171	11251.019531
57.141891	272.080414
58.074535	616.87793
60.0457	2416.50708
67.055733	2006.850952
68.051109	1643.625
69.071091	3793.157959
70.066864	2954.737061
71.064461	227.965607
72.045303	275.619812
77.039772	672.034302
79.055336	11691.94043
79.138405	229.171097
80.058083	1188.682007
81.058014	685.674072
82.06485	170.5103
84.082001	1486.274048
85.065689	7266.042969
85.152054	161.849304
86.068329	515.994202
86.094658	173.160202
89.039383	444.77359
94.065605	748.710083
96.081787	81598.492188
97.082573	6988.200195
97.17691	146.707199
98.079231	283.964111
100.076767	620.398376
102.091972	6284.879883
103.095024	444.459198
113.108063	31658.5
114.092392	76963.226562
115.095406	6953.967773
116.050163	2747.775879
116.09494	500.128906
117.05336	258.931793
123.092125	143.244507
126.092056	365.711304
131.118423	10569.129883
131.224686	196.697906
132.10553	3280.657959
133.109528	241.910706
139.086716	387.415314
143.118042	225.556503
144.044907	10024.980469
144.156784	178.539001
145.047821	1179.020996
146.060318	1388.500977
147.063705	164.199493
154.122696	229.195404
156.13826	191.091507
157.096939	257.800812
158.060425	327.371796
168.138458	725.652527
171.055283	803.775574
172.039871	14665.349609
172.162567	248.856598
173.043427	1856.994995
174.048492	221.182007
179.1548	10822.540039
179.2798	207.001907
180.140701	11864.099609
180.262177	219.297699
181.142761	1792.33606
182.14238	187.5103
185.071289	1194.838989
186.075134	434.0755
189.066284	18438.640625
189.194458	338.185608
190.063049	3705.560059
191.063736	360.095886
197.165588	137938.203125
198.156631	45438.640625
199.155579	6560.937988
200.059952	246.566299
200.156448	660.658875
201.065887	1259.873047
202.067963	245.393005
203.080948	375.899597
212.081665	190.101593
213.06665	7299.874023
214.069275	1767.01001
215.075165	215.374695
215.176163	33599.300781
216.178406	5645.708008
217.180298	572.598694
223.088562	170.569794
225.103577	204.317795
227.083206	164.588303
231.077393	40587.03125
232.08049	7453.439941
233.082565	883.540771
233.1875	277.214386
237.102646	293.712494
239.118469	347.121704
241.09726	539.837402
242.100098	173.6586
243.113144	715.09198
244.117279	195.545303
249.101944	356.748108
255.114212	980.795776
256.118103	201.506897
266.1297	5921.416016
267.115753	9922.740234
267.264465	173.592804
268.118439	2610.041016
269.119965	285.620209
273.124664	1936.626953
274.126953	528.26178
282.124786	219.582504
283.12616	151.711502
284.140869	94272.546875
285.129822	75351.546875
286.130066	16361.830078
286.283752	275.510406
287.131561	2125.470947
288.133118	146.803101
302.151398	77055.25
303.154022	19181.609375
303.314911	331.2258
304.15567	2595.389893
305.157837	233.599701
315.135162	2060.940918
316.138123	583.840271
320.161865	18855.990234
321.164673	4475.682129
322.166412	710.19873
338.185364	275.1362
368.198639	61434.429688
369.200531	21145.070312
370.200775	3554.188965
371.2034	425.204803
386.209259	52420.398438
387.211823	17550.169922
388.2146	2706.11499
389.214661	265.473114
404.21991	20913.5
405.222717	7146.454102
406.225677	1289.53894
407.231812	175.3181
407.286591	174.136795
END IONS

BEGIN IONS
PEPMASS=426.202
CHARGE=1
MSLEVEL=2
SOURCE_INSTRUMENT=LC-ESI-qTof
FILENAME=c12_1.mgf
SEQ=*..*
IONMODE=Positive
ORGANISM=GNPS-LIBRARY
NAME=Actinoquinolone A M+Na
PI=Fenical-Jensen-Moore
DATACOLLECTOR=Max
SMILES=N/A
INCHI=N/A
INCHIAUX=N/A
PUBMED=N/A
SUBMITUSER=mwang87
LIBRARYQUALITY=1
SPECTRUMID=CCMSLIB00000001620
SCANS=1
168.042282	1531.636963
169.045166	223.725403
212.031631	1253.005005
213.034439	208.907104
219.146912	176.857895
237.158112	16484.630859
238.161118	3055.274902
239.162857	316.012695
255.169006	6628.26709
255.316086	109.596901
256.171692	1047.362061
257.177795	104.032501
281.14856	425.371002
408.190674	2849.24707
409.194946	940.379272
410.200806	123.876999
426.201569	86692.25
427.204529	28001.019531
428.207703	4487.873047
429.211395	420.330688
429.30838	88.502747
430.19809	107.869301
END IONS

BEGIN IONS
PEPMASS=601.358
CHARGE=1
MSLEVEL=2
SOURCE_INSTRUMENT=LC-ESI-qTof
FILENAME=d2.mgf
SEQ=*..*
IONMODE=Positive
ORGANISM=GNPS-LIBRARY
NAME=Desferrioxamine E M+H
PI=Fenical-Jensen-Moore
DATACOLLECTOR=Max
SMILES=C1CCNC(=O)CCC(=O)N(CCCCCNC(=O)CCC(=O)N(CCCCCNC(=O)CCC(=O)N(CC1)O)O)O
INCHI=InChI=1S/C27H48N6O9/c34-22-10-14-26(38)32(41)20-8-3-6-18-30-24(36)12-15-27(39)33(42)21-9-2-5-17-29-23(35)11-13-25(37)31(40)19-7-1-4-16-28-22/h40-42H,1-21H2,(H,28,34)(H,29,35)(H,30,36)
INCHIAUX=N/A
PUBMED=N/A
SUBMITUSER=mwang87
LIBRARYQUALITY=1
SPECTRUMID=CCMSLIB00000001621
SCANS=1
56.050453	216.351501
82.06546	198.849197
84.044495	291.282104
84.081734	11056.969727
84.166962	275.449005
85.086792	855.403625
86.096985	280.511993
100.039833	3117.533936
102.092087	3149.293945
110.097282	222.385696
112.040283	946.308411
119.117645	283.783813
122.097145	417.296906
137.107544	789.944519
138.092209	1360.844971
140.071503	391.707611
154.086609	3062.091064
155.090652	283.647614
165.102493	3951.846924
166.087082	8772.938477
167.089935	915.046082
168.102005	1040.217041
171.112045	192.212296
183.113113	8927.036133
184.107117	1345.031982
185.126984	569.088013
201.124039	56725.128906
202.126816	5900.729004
203.1315	615.507874
211.143951	585.121582
213.123108	236.618607
218.150101	227.728806
219.134613	2369.906982
220.137756	308.159302
237.123779	312.861206
265.118652	562.307007
282.147278	216.621201
283.1297	9513.424805
284.133575	1426.613037
284.193268	232.4711
285.138733	257.084503
300.155334	337.15271
301.140503	7328.708984
302.143433	1205.795044
303.144287	240.601501
319.235596	1916.901001
320.237549	364.678894
339.241028	209.816406
355.235596	389.774414
366.204071	711.545715
383.230316	2229.75
384.230682	576.52301
385.243225	300.697205
401.240631	97542.882812
402.243988	21828.849609
403.246033	3277.48291
404.24942	291.529205
419.251129	1648.953979
420.254456	395.772308
483.246277	1981.781006
484.249146	622.740173
501.256592	740.278503
501.339447	315.145691
502.261932	264.915894
583.346191	1598.338989
584.346619	678.859314
601.357117	186817.90625
602.360413	73606.578125
603.363098	15348.040039
603.580139	256.253815
604.36499	2223.407959
END IONS

BEGIN IONS
PEPMASS=623.339
CHARGE=1
MSLEVEL=2
SOURCE_INSTRUMENT=LC-ESI-qTof
FILENAME=d2_1.mgf
SEQ=*..*
IONMODE=Positive
ORGANISM=GNPS-LIBRARY
NAME=Desferrioxamine E M+Na
PI=Fenical-Jensen-Moore
DATACOLLECTOR=Max
SMILES=C1CCNC(=O)CCC(=O)N(CCCCCNC(=O)CCC(=O)N(CCCCCNC(=O)CCC(=O)N(CC1)O)O)O
INCHI=InChI=1S/C27H48N6O9/c34-22-10-14-26(38)32(41)20-8-3-6-18-30-24(36)12-15-27(39)33(42)21-9-2-5-17-29-23(35)11-13-25(37)31(40)19-7-1-4-16-28-22/h40-42H,1-21H2,(H,28,34)(H,29,35)(H,30,36)
INCHIAUX=N/A
PUBMED=N/A
SUBMITUSER=mwang87
LIBRARYQUALITY=1
SPECTRUMID=CCMSLIB00000001622
SCANS=1
106.063179	517.416809
123.005623	382.679504
123.089859	224.573807
223.106171	500.622101
279.215668	223.883102
323.206512	908.843628
423.221619	1118.467041
424.224945	214.924606
523.323181	973.372986
524.326599	251.0
579.348389	217.109604
623.339417	171162.90625
624.342957	58832.011719
625.343933	12577.650391
625.572021	180.061493
626.345032	1681.090942
END IONS

BEGIN IONS
PEPMASS=410.282
CHARGE=1
MSLEVEL=2
SOURCE_INSTRUMENT=LC-ESI-qTof
FILENAME=d3.mgf
SEQ=*..*
IONMODE=Positive
ORGANISM=GNPS-LIBRARY
NAME=Marineosin A M+H
PI=Fenical-Jensen-Moore
DATACOLLECTOR=Max
SMILES=[H][C@]12C[C@H](C)O[C@]3(N=C(C[C@H]3OC)C3=CC=CN3)[C@]1([H])C1=CC=C(CCCCCCC2)N1
INCHI=InChI=1S/C25H35N3O2/c1-17-15-18-9-6-4-3-5-7-10-19-12-13-21(27-19)24(18)25(30-17)23(29-2)16-22(28-25)20-11-8-14-26-20/h8,11-14,17-18,23-24,26-27H,3-7,9-10,15-16H2,1-2H3/t17-,18-,23+,24-,25-/m0/s1
INCHIAUX=JPTGQNMDWMSVSF-DUENCVSESA-N
PUBMED=N/A
SUBMITUSER=mwang87
LIBRARYQUALITY=1
SPECTRUMID=CCMSLIB00000001623
SCANS=1
55.055779	1150.256958
67.05545	1581.718994
68.050934	2196.043945
69.070503	862.376587
79.055313	1205.958008
80.050644	20418.660156
81.067696	2815.780029
82.067673	1022.0
91.05513	1383.030029
92.050735	2378.254883
93.055679	2037.009033
94.066032	7525.575195
95.062317	7259.898926
95.083267	3726.037109
96.073059	1159.358032
105.070328	1103.967041
106.06649	2893.718994
107.083038	1512.259033
108.081612	1955.593994
109.0784	1000.400024
109.099129	975.96283
110.063309	707.496521
110.097191	1216.291992
117.068291	1359.008057
118.066528	1619.328003
119.080177	1446.743042
120.081467	7209.056152
121.089943	1677.91394
122.097145	2198.481934
125.071877	2251.311035
129.070663	1109.620972
130.06636	2094.683105
131.078171	1857.43396
132.079361	2276.375977
133.089142	1488.771973
134.096924	6163.243164
135.104614	1026.435059
136.112717	1578.192017
141.070816	749.886719
143.084412	1342.041992
144.081726	1800.541992
145.087631	2709.110107
146.094681	3609.36499
147.057007	3436.368896
147.106064	1230.972046
148.066193	1032.871948
148.112625	4383.424805
149.072006	2860.979004
149.119476	968.500305
151.087265	1698.19104
155.085022	714.931396
157.100861	2049.889893
158.098297	1700.072021
159.057037	2359.887939
159.113007	2047.213989
160.071579	898.284973
160.113022	2431.280029
161.072266	4713.431152
161.120712	1067.96106
162.080307	1273.453979
162.127914	2053.458008
163.087204	11487.400391
163.146591	2539.177979
164.09166	3037.177002
170.096786	705.885925
171.115891	2864.754883
172.076859	700.96582
172.11438	1510.745972
173.076096	1573.609009
173.121307	830.359375
174.089584	1602.892944
174.126556	1885.983032
175.090897	1003.327026
176.144226	1999.248047
179.082031	5742.060059
180.086777	1606.862061
183.116196	1470.98999
184.112854	735.593323
185.11586	978.522522
186.093689	5015.89502
187.094238	1516.937012
187.141144	1049.150024
188.1436	4011.522949
189.150818	1307.130981
190.159775	22142.199219
191.082382	2686.14209
191.162827	4147.625977
197.102493	763.942383
200.143997	15392.860352
201.105652	707.78717
201.153229	3865.879883
202.160263	2217.379883
211.114273	803.429626
212.137939	736.682129
213.113647	756.935181
213.164215	3787.385986
214.16394	1359.442017
216.175125	1292.719971
218.191208	3548.090088
219.194199	838.293396
223.108582	816.300415
226.157425	758.367188
228.139618	93564.929688
229.143219	19682.289062
230.191162	649130.375
230.331635	31188.650391
231.195038	159550.09375
232.205383	57179.941406
233.210022	11048.790039
234.213318	1071.220947
242.191132	7487.832031
243.193863	1769.920044
244.175583	2685.641113
245.176346	1056.506958
246.186386	12875.780273
247.189987	3048.351074
248.201843	7868.105957
249.205658	1948.042969
252.171783	862.851318
258.213867	1439.504028
260.165985	40447.898438
261.169281	8802.941406
262.171234	1095.642944
268.205383	951.016296
269.168823	1008.880005
270.186829	143834.40625
271.190063	34022.128906
272.193878	3716.524902
274.217224	2281.290039
284.202423	3342.344971
285.203827	1800.968994
286.217865	18034.029297
287.220215	9904.041992
288.2229	1702.881958
291.186005	778.106384
294.189575	886.315308
302.212799	696121.1875
303.21637	190860.296875
304.219391	22296.490234
305.220978	1431.098999
311.213531	4249.027832
312.217499	1731.626953
317.206909	782.948181
318.236237	1915.92395
319.183777	6747.926758
319.235748	3559.208008
320.201233	3116.172119
321.214264	1241.630981
326.213623	877.183716
333.234344	2406.832031
334.231812	3983.556885
335.235535	2103.759033
336.209137	26121.689453
337.21405	12496.05957
338.218994	2437.525879
343.230499	1272.071045
344.222992	741.717773
350.255402	1798.86499
351.252014	938.858887
352.240479	726.447571
360.244965	12354.959961
361.230774	87605.421875
362.233917	38573.328125
363.237213	6985.323242
368.235474	2367.243896
369.239594	1260.672974
378.255798	370917.3125
379.260223	195731.5
380.264038	38310.910156
381.267029	4098.544922
392.271484	3991.702881
393.260315	7722.803223
394.261566	3426.13208
395.263	731.307983
410.282379	165659.90625
411.286835	91412.546875
412.289307	20707.630859
413.291077	2588.466064
END IONS

BEGIN IONS
PEPMASS=432.264
CHARGE=1
MSLEVEL=2
SOURCE_INSTRUMENT=LC-ESI-qTof
FILENAME=d3_1.mgf
SEQ=*..*
IONMODE=Positive
ORGANISM=GNPS-LIBRARY
NAME=Marineosin A M+Na
PI=Fenical-Jensen-Moore
DATACOLLECTOR=Max
SMILES=[H][C@]12C[C@H](C)O[C@]3(N=C(C[C@H]3OC)C3=CC=CN3)[C@]1([H])C1=CC=C(CCCCCCC2)N1
INCHI=InChI=1S/C25H35N3O2/c1-17-15-18-9-6-4-3-5-7-10-19-12-13-21(27-19)24(18)25(30-17)23(29-2)16-22(28-25)20-11-8-14-26-20/h8,11-14,17-18,23-24,26-27H,3-7,9-10,15-16H2,1-2H3/t17-,18-,23+,24-,25-/m0/s1
INCHIAUX=JPTGQNMDWMSVSF-DUENCVSESA-N
PUBMED=N/A
SUBMITUSER=mwang87
LIBRARYQUALITY=1
SPECTRUMID=CCMSLIB00000001624
SCANS=1
55.015953	21.253071
60.04982	16.84474
71.052055	11.92744
81.072914	34.275002
92.049057	82.267227
96.08577	24.94533
97.098763	16.451599
109.072952	30.53091
121.098953	12.21603
126.091957	19.933889
132.081116	17.404591
134.104248	10.7
136.113068	21.779631
147.056595	57.400139
149.067749	16.601999
150.047684	16.59231
150.081604	15.02963
158.957611	11.15372
159.115082	15.6689
162.074234	23.88179
170.041611	25.40308
172.061127	28.911421
179.083176	134.274094
180.087997	47.032139
187.134155	12.46731
190.086548	10.2
190.156143	24.008329
201.063278	79.228569
202.070206	36.526321
205.166565	11.23952
208.112244	14.82963
208.591278	55.89156
225.641327	11.135
229.130157	15.23214
230.188278	66.913017
231.190323	23.039289
232.20343	16.89415
246.184509	11.575
248.204086	19.346951
251.161896	13.33636
255.078522	12.8699
262.167694	18.17812
263.08783	17.58824
268.162964	16.61025
269.660126	16.728029
271.187744	14.90305
273.688477	17.209
277.506653	31.58824
279.15567	10.31136
286.185059	34.404549
286.641815	13.2
288.204407	11.40417
296.203461	21.605
296.881348	31.24091
299.692169	16.012501
300.2052	11.80071
301.905182	12.85786
307.698792	11.87222
309.668915	14.162
311.210052	19.600531
312.676147	18.965719
314.194977	21.05192
314.703552	25.656981
320.443909	17.963369
323.194794	25.924999
325.701294	34.95911
326.223114	17.689819
327.178772	10.05682
327.282349	10.05682
332.18338	18.857071
334.208679	11.20833
338.703247	13.51029
339.215759	17.633141
341.186951	13.80357
342.191589	28.192051
342.719666	11.80833
342.835602	18.77696
346.718597	14.40385
347.210114	15.70431
350.213196	12.22722
351.220612	17.15741
358.226562	34.565491
360.224487	18.097969
361.247772	16.2332
362.708496	15.38182
363.245422	37.1717
364.2276	28.288
365.197784	11.29826
366.196564	20.311171
376.254395	11.52071
377.224487	22.040331
378.250824	10.88929
379.23996	28.719999
380.242126	12.31136
380.71698	13.55
382.207214	16.200001
383.222626	19.423531
385.309479	14.40156
386.362091	19.408871
386.781952	31.55537
387.882935	15.78409
391.097473	11.245
391.215881	12.929
392.110321	14.00064
400.240601	95.027481
401.241943	123.130096
401.325836	23.42845
402.239288	24.468519
403.251892	14.21316
408.217255	13.37794
409.249817	15.8
412.253784	14.13636
415.261749	17.77696
416.242096	23.16337
417.251801	17.225
417.757385	17.453329
419.239685	10.42661
424.257385	15.95
426.308014	15.24914
428.041229	18.0966
428.114227	15.25208
428.709595	10.58418
428.934418	14.03
429.415283	10.081
430.262726	11.53611
430.597443	15.29167
430.810059	10.02368
431.408569	11.95
431.467987	11.60056
432.114716	12.45682
432.264069	6152.042969
432.45575	68.356361
432.517944	36.041
432.682678	32.828571
432.83786	32.512821
432.884674	22.49
432.998596	24.625
433.088257	37.224998
433.267731	3262.686035
433.463409	38.16333
433.525543	29.549999
433.63736	27.251921
433.732208	28.410959
433.814087	20.68643
434.016907	20.57045
434.26944	852.840088
434.461792	34.401348
434.550262	17.68804
434.653442	24.27206
434.79126	30.730881
434.837982	22.238091
435.275146	127.662804
435.387787	21.61059
435.53656	24.56337
435.600647	11.94444
435.695129	11.245
435.77536	26.45615
436.031647	16.52803
436.137726	18.475
436.698181	10.409
437.389313	16.247999
437.497681	10.66667
446.310242	10.61603
448.312042	12.22812
448.848236	54.730801
449.494385	11.07222
455.263367	12.09091
457.193787	13.26176
482.291992	13.49113
506.146606	15.07222
509.344452	10.65714
512.306641	14.61739
558.186462	10.169
563.819946	12.32857
566.402893	10.73581
578.391479	13.83333
596.341553	11.06154
625.397034	12.50403
656.330811	15.52704
672.426331	10.475
673.728943	12.10833
709.440369	20.18227
967.441895	22.311541
1097.612671	20.400351
1552.390381	12.4625
END IONS

BEGIN IONS
PEPMASS=410.282
CHARGE=1
MSLEVEL=2
SOURCE_INSTRUMENT=LC-ESI-qTof
FILENAME=d4.mgf
SEQ=*..*
IONMODE=Positive
ORGANISM=GNPS-LIBRARY
NAME=Marineosin B M+H
PI=Fenical-Jensen-Moore
DATACOLLECTOR=Max
SMILES=CO[C@H]1C\C(N[C@@]11O[C@@H](C)C[C@@H]2CCCCCCCC3=CC=C(N3)[C@@H]12)=C1/C=CC=N1
INCHI=InChI=1S/C25H35N3O2/c1-17-15-18-9-6-4-3-5-7-10-19-12-13-21(27-19)24(18)25(30-17)23(29-2)16-22(28-25)20-11-8-14-26-20/h8,11-14,17-18,23-24,27-28H,3-7,9-10,15-16H2,1-2H3/b22-20-/t17-,18-,23-,24-,25+/m0/s1AuxInfo=1/0/N:1,29,8,7,9,6,10,24,5,11,23,13,14,25,3,20,2,4,12,22,15,21,19,16,17,26,30,27,28,18/it:im/rA:30CC.oCC.eCCCCCCCCCCCC.oC.oOC.eCCCCCCNNOCN/rB:p1;s2;n3;s4;s5;s6;s7;s8;s9;s10;s11;d12;s13;d14;s4p15;s16;s2s17;s17;s19;s20;d-21;s22;d23;s24;s22d25;N17s21;P19;s28;s12s15;/rC:7.0888,-5.0303,0;6.6191,-3.5637,0;5.1142,-3.2371,0;4.6445,-1.7705,0;3.1395,-1.444,0;2.1042,-2.5841,0;.5992,-2.2575,0;.1295,-.7909,0;1.1648,.3492,0;.6951,1.8158,0;1.7304,2.9559,0;3.2354,2.6294,0;4.5723,3.3937,0;5.7124,2.3584,0;5.0269,.7183,0;5.6798,-.6304,0;7.1847,-.957,0;7.6544,-2.4236,0;6.8709,.5507,0;8.2078,1.3151,0;9.3479,.2798,0;10.8556,.5936,0;11.4879,1.9978,0;13.0188,1.8304,0;13.3326,.3227,0;11.9957,-.4417,0;8.7156,-1.1244,0;5.4667,1.183,0;4.217,.2831,0;3.7051,1.1627,0;
INCHIAUX=VCQKVUNLUXMOER-XWXFOZCPSA-N
PUBMED=N/A
SUBMITUSER=mwang87
LIBRARYQUALITY=1
SPECTRUMID=CCMSLIB00000001625
SCANS=1
68.050919	1136.525024
80.050423	5490.668945
81.067627	904.504272
91.054955	747.871094
92.050835	908.840088
93.050179	1338.759033
94.06562	2577.49707
95.061829	5474.78418
96.069412	700.810608
106.066223	995.648315
108.081955	684.354309
109.080208	726.982117
110.06263	630.436279
118.065926	889.067322
119.07814	630.09259
120.081207	2160.625
121.081093	983.807373
125.071114	1695.569946
130.065903	1228.767944
131.078217	817.414185
132.079956	1131.564941
133.085495	793.635315
134.096619	1675.723999
144.081161	958.658813
145.082687	1300.911011
146.062134	892.182007
146.094604	1278.858032
147.062408	986.396912
148.112808	1153.843018
158.096207	956.735596
159.059326	791.14978
160.111725	733.026306
161.072601	1634.125977
162.127335	720.666016
163.087784	1515.927002
171.111252	728.197083
172.112198	716.670227
173.08136	775.18042
174.090469	1308.495972
174.125717	863.175171
176.143951	625.911804
179.082306	749.812012
183.116013	1089.217041
185.078857	637.943298
186.092407	4004.782959
187.095566	1318.296997
188.143555	1496.22998
190.159393	3569.031982
191.163101	754.244812
200.144012	11356.919922
201.148331	2383.136963
202.158035	1054.118042
216.174911	701.151672
218.191101	1499.217041
228.139313	88977.90625
229.143036	18346.109375
230.191315	54938.730469
231.194763	13663.969727
232.203247	7482.101074
233.206223	1681.651001
242.191071	5970.337891
243.194016	1593.833008
244.171082	2259.447021
244.199844	1380.246948
245.177399	803.328979
246.186096	5912.286133
247.189484	1503.713013
248.201126	1793.66394
252.174408	631.66803
258.213013	788.203613
260.165802	31226.560547
261.168976	7111.123047
262.172485	816.547119
268.205078	661.05188
269.180511	712.700073
270.18631	147902.0
271.189911	36585.230469
272.193542	4038.354004
274.217407	1227.436035
284.202362	2392.531006
285.202728	1394.0
286.217651	15989.759766
287.219666	8095.442871
288.2229	1453.100952
302.212616	610875.5
302.372314	29367.880859
303.216278	171671.0
304.219269	20419.949219
305.221832	1352.375
311.213318	3371.080078
312.216522	1296.473999
318.216278	746.34491
319.184326	5714.673828
320.200317	2411.363037
321.212494	925.967773
333.233551	1642.069946
334.231964	2054.820068
335.232147	1134.155029
336.20874	16546.269531
337.214294	7884.958008
338.219299	1533.688965
343.223022	676.922119
350.251862	795.121887
360.244904	6402.390137
361.229828	77138.671875
362.233337	31581.910156
363.236755	5554.256836
378.255493	373515.09375
379.259796	186558.5
380.263702	35594.339844
381.266571	3830.735107
392.271454	1418.468018
393.260345	2671.716064
394.260956	1234.470947
410.282104	31078.470703
411.286255	15939.94043
412.28891	3519.906982
END IONS

BEGIN IONS
PEPMASS=736.0
CHARGE=0
MSLEVEL=2
SOURCE_INSTRUMENT=LC-ESI-qTof
FILENAME=20121201_PAVL_Ger_LyngbyabellinA_M2Na_736_qb.1.1..mgf
SEQ=*..*
IONMODE=Positive
ORGANISM=GNPS-LIBRARY
NAME=Lyngbyabellin A M+2Na
PI=Gerwick
DATACOLLECTOR=PAVL
SMILES=CC[C@H](C)[C@H]1C2=NC(=CS2)C(=O)O[C@H](C(C(=O)O[C@H](C3=NC(=CS3)C(=O)NCC(=O)N1)C(C)(C)O)(C)C)CCCC(C)(Cl)Cl
INCHI=InChI=1S/C29H40Cl2N4O7S2/c1-8-15(2)20-23-34-17(14-43-23)25(38)41-18(10-9-11-29(7,30)31)27(3,4)26(39)42-21(28(5,6)40)24-33-16(13-44-24)22(37)32-12-19(36)35-20/h13-15,18,20-21,40H,8-12H2,1-7H3,(H,32,37)(H,35,36)/t15-,18-,20-,21+/m0/s1
INCHIAUX=N/A
PUBMED=N/A
SUBMITUSER=mwang87
LIBRARYQUALITY=1
SPECTRUMID=CCMSLIB00000001626
SCANS=1
621.054688	1575.0
688.749268	3898.0
690.929321	47197.0
703.828857	4850.0
706.624268	1438.0
712.023926	1633.0
735.313965	2234.0
END IONS

BEGIN IONS
PEPMASS=419.155
CHARGE=1
MSLEVEL=2
SOURCE_INSTRUMENT=LC-ESI-qTof
FILENAME=d5.mgf
SEQ=*..*
IONMODE=Positive
ORGANISM=GNPS-LIBRARY
NAME=Sagitol B (Putative Analogue)  M+H
PI=Fenical-Jensen-Moore
DATACOLLECTOR=Max
SMILES=N/A
INCHI=N/A
INCHIAUX=N/A
PUBMED=PMID: 9873113  doi:10.1016/S0040-4039(96)02163-6
SUBMITUSER=mwang87
LIBRARYQUALITY=1
SPECTRUMID=CCMSLIB00000001627
SCANS=1
57.071293	6788.800781
85.065643	4854.990234
102.092079	1454.589966
128.107605	1670.649048
242.084061	1966.389038
244.087524	1045.54895
267.079529	3400.36499
268.086761	2983.781006
273.04895	6889.854004
274.046539	5438.445801
275.050659	4585.803223
276.052429	1111.444946
288.059906	213851.90625
289.063263	57560.21875
290.059082	17786.619141
291.047791	37634.851562
292.052399	17894.259766
293.052734	4744.557129
294.052216	1008.684021
300.059753	818929.375
301.063232	249395.796875
302.060089	72762.453125
303.06073	10449.049805
316.078094	1197.302002
317.086487	250121.5
318.089844	77154.226562
319.086426	22929.380859
320.087006	3366.581055
384.118439	3763.782959
385.120789	1296.572021
401.144379	223335.203125
402.147858	87818.03125
403.145538	26951.390625
404.145813	4839.856934
419.154419	2824.318115
420.157501	1180.640015
END IONS

BEGIN IONS
PEPMASS=738.0
CHARGE=0
MSLEVEL=2
SOURCE_INSTRUMENT=LC-ESI-qTof
FILENAME=20121201_PAVL_Ger_LyngbyabellinA_MCl372Na738_qb.1.1..mgf
SEQ=*..*
IONMODE=Positive
ORGANISM=GNPS-LIBRARY
NAME=Lyngbyabellin A M+H
PI=Gerwick
DATACOLLECTOR=PAVL
SMILES=CC[C@H](C)[C@H]1C2=NC(=CS2)C(=O)O[C@H](C(C(=O)O[C@H](C3=NC(=CS3)C(=O)NCC(=O)N1)C(C)(C)O)(C)C)CCCC(C)(Cl)Cl
INCHI=InChI=1S/C29H40Cl2N4O7S2/c1-8-15(2)20-23-34-17(14-43-23)25(38)41-18(10-9-11-29(7,30)31)27(3,4)26(39)42-21(28(5,6)40)24-33-16(13-44-24)22(37)32-12-19(36)35-20/h13-15,18,20-21,40H,8-12H2,1-7H3,(H,32,37)(H,35,36)/t15-,18-,20-,21+/m0/s1
INCHIAUX=N/A
PUBMED=N/A
SUBMITUSER=mwang87
LIBRARYQUALITY=1
SPECTRUMID=CCMSLIB00000001628
SCANS=1
367.266785	3564.0
477.243958	1973.0
500.818115	4733.0
533.153687	3433.0
539.840088	2207.0
678.219482	9439.0
690.661865	6733.0
691.897827	167138.0
692.907227	116022.0
718.726685	808.0
719.361328	2496.0
737.12561	8415.0
738.295776	1636.0
END IONS

BEGIN IONS
PEPMASS=441.137
CHARGE=1
MSLEVEL=2
SOURCE_INSTRUMENT=LC-ESI-qTof
FILENAME=d5_1.mgf
SEQ=*..*
IONMODE=Positive
ORGANISM=GNPS-LIBRARY
NAME=Sagitol B (Putative Analogue) M+Na
PI=Fenical-Jensen-Moore
DATACOLLECTOR=Max
SMILES=N/A
INCHI=N/A
INCHIAUX=N/A
PUBMED=doi:10.1016/S0040-4039(96)02163-6   doi:10.1016/j.bfopcu.2013.05.004
SUBMITUSER=mwang87
LIBRARYQUALITY=1
SPECTRUMID=CCMSLIB00000001629
SCANS=1
95.032883	39.689659
109.046051	22.175619
136.074478	70.807297
151.096405	25.044451
204.980927	24.028271
291.049133	27.903009
312.022186	71.921516
313.02887	18214.570312
313.407227	24.94409
313.511536	33.45158
314.033234	6014.580078
314.197754	70.828987
314.240204	29.58449
314.336426	24.846251
314.444244	31.99963
314.77597	20.40729
315.029633	1791.947021
315.192108	28.14497
315.239624	18.60146
315.374329	21.44459
315.782288	21.319189
316.033112	256.100586
317.022522	23.1651
318.066803	45.381741
327.042419	56.489422
340.052551	172.9422
341.051697	33.731369
342.058838	21.244949
441.136719	6592.453125
441.329559	96.548759
441.379761	43.451908
441.686035	32.45245
441.877563	27.45278
442.139618	2748.762939
442.332184	46.696301
442.399597	32.347221
443.044708	23.622219
443.136688	806.190796
443.334351	167.911697
444.136536	224.824005
444.326569	38.12957
637.393677	30.889231
END IONS

BEGIN IONS
PEPMASS=693.0
CHARGE=0
MSLEVEL=2
SOURCE_INSTRUMENT=LC-ESI-qTof
FILENAME=20121201_PAVL_Ger_LyngbyabellinA_MCl37H_693_qb.1.1..mgf
SEQ=*..*
IONMODE=Positive
ORGANISM=GNPS-LIBRARY
NAME=Lyngbyabellin A M+H
PI=Gerwick
DATACOLLECTOR=PAVL
SMILES=CC[C@H](C)[C@H]1C2=NC(=CS2)C(=O)O[C@H](C(C(=O)O[C@H](C3=NC(=CS3)C(=O)NCC(=O)N1)C(C)(C)O)(C)C)CCCC(C)(Cl)Cl
INCHI=InChI=1S/C29H40Cl2N4O7S2/c1-8-15(2)20-23-34-17(14-43-23)25(38)41-18(10-9-11-29(7,30)31)27(3,4)26(39)42-21(28(5,6)40)24-33-16(13-44-24)22(37)32-12-19(36)35-20/h13-15,18,20-21,40H,8-12H2,1-7H3,(H,32,37)(H,35,36)/t15-,18-,20-,21+/m0/s1
INCHIAUX=N/A
PUBMED=N/A
SUBMITUSER=mwang87
LIBRARYQUALITY=1
SPECTRUMID=CCMSLIB00000001630
SCANS=1
197.783325	1300831.0
198.701019	84942.0
208.812012	81667.0
210.719543	2005262.0
211.823944	163170.0
212.726227	83537.0
214.855591	2972520.0
215.931458	15447.0
216.778778	149501.0
217.505524	12.0
219.632233	48491.0
220.81665	155724.0
228.823151	84300.0
236.897949	76207.0
238.020782	40277.0
238.771881	2256820.0
239.761108	486330.0
240.984924	144590.0
248.441956	60849.0
256.817505	268744.0
291.201416	45909.0
319.230896	99707.0
321.983032	44261.0
330.917969	29430.0
333.756592	75193.0
342.861816	66585.0
353.833679	252008.0
356.075195	53209.0
356.828796	69699.0
358.981445	202029.0
361.104553	109165.0
369.69281	150558.0
381.327576	143218.0
383.029297	72439.0
390.93512	317133.0
391.558105	51.0
392.827515	374222.0
394.856384	181932.0
396.254883	62123.0
398.676392	149676.0
400.176392	522248.0
401.313721	279276.0
401.91687	239140.0
405.085083	46973.0
408.826782	35421.0
412.895264	158839.0
414.285767	321822.0
414.959045	160442.0
416.887695	3267596.0
417.996216	1143779.0
418.90448	2865703.0
420.623535	237234.0
422.7901	92279.0
432.728943	219557.0
434.926941	2337247.0
435.96405	374418.0
436.90863	213235.0
437.845032	963895.0
440.810181	1804173.0
441.895081	629282.0
442.752136	1708939.0
443.491394	78.0
448.85675	286986.0
449.980896	84596.0
450.867737	2444078.0
451.563599	33.0
452.787537	5270256.0
453.802063	897919.0
454.794434	8695544.0
455.620911	127.0
460.693726	148369.0
471.145325	125765.0
472.81073	113961.0
475.566711	19583.0
477.007263	400133.0
477.849854	1312643.0
478.744751	5463599.0
479.424622	54.0
488.599976	130321.0
505.864807	82707.0
579.714111	307681.0
580.808838	69609.0
597.634033	204018.0
599.145264	354525.0
599.888916	3.0
606.395752	42469.0
607.941406	50276.0
611.966675	87088.0
617.861084	318322.0
619.968018	79901.0
633.773926	192236.0
634.933838	536064.0
635.800537	2604961.0
636.884766	539088.0
637.595703	133672.0
638.767578	1275640.0
639.540283	19.0
647.626953	164233.0
654.841431	6784797.0
655.940918	5180671.0
656.900024	9201844.0
657.644775	247.0
663.133423	126811.0
664.202881	275402.0
664.915527	462262.0
673.911255	478402.0
674.842651	3045906.0
675.832153	143982.0
691.626465	51986.0
END IONS

BEGIN IONS
PEPMASS=879.461
CHARGE=1
MSLEVEL=2
SOURCE_INSTRUMENT=LC-ESI-qTof
FILENAME=d7.mgf
SEQ=*..*
IONMODE=Positive
ORGANISM=GNPS-LIBRARY
NAME=Etamycin M+H
PI=Fenical-Jensen-Moore
DATACOLLECTOR=Max
SMILES=CC1C(C(=O)NC(C(=O)N2CC(CC2C(=O)N(CC(=O)N(C(C(=O)NC(C(=O)N(C(C(=O)O1)C3=CC=CC=C3)C)C)C(C)C(C)C)C)C)O)CC(C)C)NC(=O)C4=C(C=CC=N4)O
INCHI=InChI=1S/C44H62N8O11/c1-23(2)19-30-42(60)52-21-29(53)20-31(52)43(61)49(8)22-33(55)50(9)36(25(5)24(3)4)40(58)46-26(6)41(59)51(10)37(28-15-12-11-13-16-28)44(62)63-27(7)34(38(56)47-30)48-39(57)35-32(54)17-14-18-45-35/h11-18,23-27,29-31,34,36-37,53-54H,19-22H2,1-10H3,(H,46,58)(H,47,56)(H,48,57)
INCHIAUX=N/A
PUBMED=N/A
SUBMITUSER=mwang87
LIBRARYQUALITY=1
SPECTRUMID=CCMSLIB00000001631
SCANS=1
55.054512	371.700806
56.050278	539.163818
57.058144	313.628387
58.065483	844.485901
60.044971	1246.437988
68.049896	2816.27002
69.03437	284.914612
69.052406	206.682098
70.065445	800.43573
72.044754	23737.380859
72.123917	580.418518
73.048141	1088.055054
74.059776	172.262207
79.054245	406.051208
80.050735	273.9216
82.065125	383.733612
83.085426	874.563721
84.045265	180.511993
84.082062	201.022797
86.06031	22718.429688
86.092377	3247.339111
86.147057	539.625427
87.062981	1309.438965
87.097122	223.819901
90.054932	378.433289
94.028572	1296.244995
94.062149	281.578003
100.039413	110116.601562
101.04229	6682.940918
102.046616	533.812317
103.086304	1309.801025
107.048477	448.973114
110.059265	217.635803
112.039307	225.671005
112.075134	1247.932007
112.11145	3279.285889
113.07254	415.090515
113.11454	370.337311
114.056023	504.495789
114.127716	82391.328125
115.130783	8076.09082
115.229576	170.706802
116.134338	281.446503
118.063995	282.043213
120.08049	25910.449219
121.083618	3231.395996
122.023399	1719.754028
124.111557	1446.123047
125.114174	213.072296
126.128334	246.911102
132.072128	276.450897
135.043335	1877.281006
136.047653	166.132797
136.111633	1504.072021
139.050064	558.737915
139.0858	1135.380005
140.070404	5784.716797
140.142517	2624.014893
141.073242	691.68042
141.100861	1451.911011
141.140274	510.801788
142.049454	236.791595
142.122147	19870.699219
142.23349	394.777588
143.080536	525.33783
143.125336	2217.822998
145.096771	1468.680054
146.097626	273.4841
148.075256	3860.965088
149.075012	874.797913
151.049423	242.0802
151.085526	615.507019
151.118607	248.791595
152.105896	440.492889
153.133759	213.560303
154.12204	23012.070312
155.080597	619.281921
155.125107	3338.183105
156.130478	254.774506
157.096252	1270.522949
160.132782	1310.973022
161.091049	590.509094
161.131699	197.987595
162.091064	305.314392
165.065323	447.481812
165.137756	218.779205
166.085678	18819.349609
166.205078	352.274689
167.085388	4445.908203
168.084091	528.440979
169.096558	8897.925781
169.16713	807.573486
170.116394	11660.55957
170.23703	199.072693
171.07579	4411.241211
171.117035	1908.984985
172.078796	596.650818
172.127213	227.955093
176.069809	2739.471924
176.101227	1446.281006
177.065262	8739.12207
177.188675	168.152802
178.069855	1029.380005
179.04509	1536.659058
179.078857	926.529114
179.150848	187.176102
180.04837	221.933594
180.103729	445.179291
182.11705	38820.429688
183.075928	302.125
183.120331	6131.708984
184.124741	576.626587
185.091476	60922.5
185.163986	42170.289062
186.094635	8064.838867
186.167023	6464.195801
187.096375	954.808105
187.169586	359.25119
188.070145	2946.365967
189.073273	502.134491
191.118179	539.860474
192.102295	682.596313
193.106506	170.872894
194.141525	200.380295
195.075943	1862.015991
195.146133	268.318207
196.078384	187.639008
197.121735	393.146393
197.163391	763.766113
198.128876	207.043106
199.143311	565.660583
202.08609	990.766418
203.101685	1269.322998
204.100784	1896.952026
205.060181	53904.949219
206.063202	8282.962891
207.065613	905.820129
209.16394	821.722778
211.141525	186.658005
212.174362	1411.276978
213.087875	498.025299
213.159225	48930.171875
214.162308	8441.941406
215.166641	727.873779
216.134003	1640.401001
217.136475	263.414398
219.112671	2643.285889
220.117096	550.866089
222.087112	412.950989
223.070877	4817.676758
223.142303	1133.119995
224.074371	768.554626
224.14447	234.655304
225.158813	1452.159058
226.160049	257.883606
227.139252	617.798889
228.130157	429.784302
229.143585	178.689804
231.169922	5404.831055
232.172791	1048.404053
233.128204	365.672913
235.143723	588.723083
237.123245	4142.986816
237.231796	635.698486
238.126282	851.53009
238.187912	358.822693
238.231339	199.567993
239.133621	243.634796
240.206238	243.584396
241.153961	1314.965942
242.156631	228.520599
244.098434	482.690887
244.141785	392.672913
249.159531	192.628296
253.153793	1005.445984
254.156845	254.027802
255.17012	1468.442993
256.128784	6006.546875
257.132599	1176.670044
258.14798	1406.629028
259.105865	167.121002
259.166718	421.639191
261.122986	753.684204
262.154022	1789.098022
263.156647	474.446503
266.187225	176.684799
268.153809	426.523285
269.16037	224.7146
271.1651	405.976715
272.139313	566.233887
274.148651	334.106415
276.09729	322.718292
279.133759	3612.631104
280.137177	882.417786
280.19754	296.809509
281.149933	674.560913
281.220917	557.153992
282.155426	199.710999
282.220642	411.112213
283.106628	184.827393
284.196655	44083.671875
285.199554	10304.009766
286.202759	943.338196
287.18103	257.316895
290.14978	18256.480469
291.152344	4475.448242
292.155182	521.730713
293.151337	201.076401
295.075256	179.8246
295.16568	1204.33606
296.166779	289.138489
298.186188	626.387329
300.133453	377.457397
302.207428	2434.927002
303.210297	656.709229
304.163452	178.367294
305.185577	235.426193
308.197449	1024.468018
309.197693	337.503113
310.201752	264.510712
311.102783	467.425293
312.190094	464.728485
315.236725	185.247894
318.144623	18017.859375
319.1474	4689.469238
320.151276	621.365173
324.154388	329.166199
324.186584	269.740906
325.222961	2485.455078
326.207642	56001.691406
327.210632	14137.900391
327.377655	200.231796
328.213074	1887.555054
329.187927	1173.374023
330.192078	338.302307
332.160492	2336.896973
333.163177	646.564819
336.155212	2414.525879
337.1586	741.641174
339.096863	818.375977
340.101837	234.0065
342.144928	195.857697
343.233887	195.572601
344.223022	230.300797
347.195496	361.094391
350.170715	3210.058105
351.1745	897.416809
351.236481	740.512024
352.246796	296.345215
353.255493	380.964813
354.197205	238.186493
354.25473	175.905807
360.227173	499.04071
363.174469	224.128693
369.247864	748.185486
370.139252	2806.875977
370.254578	285.815887
371.143585	820.015503
372.229523	178.501205
378.237366	751.667908
379.235138	1077.855957
380.236115	333.388489
385.186981	2265.268066
386.189697	747.831421
387.169434	398.054413
388.212097	314.817413
389.182526	1325.345947
390.185028	427.03891
394.270569	2208.564941
395.272156	769.485229
397.244751	116055.796875
398.247589	32957.769531
399.250153	4954.742188
400.247437	502.841003
403.197052	717.745178
403.265198	344.009308
404.199219	208.113007
405.185486	184.894501
407.191498	1756.729004
408.195648	581.702881
413.181702	185.951706
415.254639	1040.249023
416.259277	258.470001
418.236115	257.618591
421.208984	170.255295
428.284515	271.492615
431.192352	6495.084961
431.258118	1701.952026
432.195862	2237.243896
432.263092	598.942871
433.1987	321.211609
439.290649	634.660278
440.295685	245.674805
441.178436	175.673996
449.203308	1148.827026
449.27536	2291.178955
450.206635	378.860504
450.278961	818.019592
455.229248	2542.448975
456.232239	1182.514038
457.238312	181.915604
463.255066	387.699493
465.304626	707.106323
466.309296	256.283386
473.276459	2484.585938
474.279785	1048.82605
475.28067	182.653305
483.223724	5113.871094
484.226257	2089.059082
485.230225	415.699493
491.286377	468.095306
492.252533	584.52478
493.251556	238.190903
501.234711	493.428589
502.230194	3930.27002
503.232758	1587.145996
504.236755	325.509613
510.327789	729.403809
511.331177	322.308197
516.317932	399.439606
517.32782	224.793701
520.240173	1828.744995
521.242981	848.834778
526.266663	1383.126953
527.269409	785.074829
530.295898	507.066711
531.299438	275.367798
532.274109	170.785797
544.313293	14617.139648
545.315918	5943.100098
546.318542	1261.404053
547.318054	166.673706
548.306702	307.007599
549.306213	173.863998
550.265259	2060.543945
551.269287	836.937988
552.272217	179.6465
554.259827	1696.594971
555.262939	764.647217
556.265503	180.105103
562.323669	10219.879883
563.326965	4116.891113
564.329468	901.153625
568.276489	1774.862061
569.280273	874.257385
570.283997	200.903702
572.274109	231.251205
578.261658	169.549194
596.271301	7330.025879
597.27533	3401.912109
598.279358	723.003906
601.334595	374.680115
602.338135	186.395798
621.302063	310.847992
622.302673	239.150604
624.336548	283.169495
625.335449	282.812012
630.384949	372.320709
631.390747	235.615601
639.313171	1784.609985
640.316162	1128.680054
641.3172	256.852997
643.345276	3344.803955
644.348022	1673.488037
645.351257	399.168213
661.355347	1347.016968
662.358154	759.952515
667.309082	5450.538086
668.311646	3000.774902
669.314697	709.232117
670.351746	309.928314
671.35791	212.2836
675.406555	910.267822
676.412231	403.290009
677.404114	168.960999
695.37616	1398.937988
696.377502	853.627686
697.377625	225.144302
698.352478	515.218872
699.355896	285.562714
714.381104	3421.522949
715.384583	1759.91394
716.389465	443.533813
738.399902	1032.18396
739.403564	727.785278
740.421143	222.811295
750.382202	168.374298
766.411804	2820.441895
767.414795	1759.104004
768.41626	510.121704
780.427368	380.795685
781.428528	274.920105
784.423706	216.631393
790.415466	219.470001
807.440491	428.527313
808.424683	10000.429688
809.427734	6250.555176
810.429443	1749.974976
811.43103	363.682312
833.45636	838.407288
834.459045	647.19458
835.465027	522.291626
836.470215	225.660004
851.466003	10462.679688
852.468628	6785.083984
853.471802	2083.042969
854.478455	406.086304
861.449951	1028.095947
862.454102	705.259583
863.458252	206.520401
879.461914	164380.796875
880.465271	105465.898438
881.467285	32540.310547
882.469482	6614.563965
883.470154	507.44931
END IONS

BEGIN IONS
PEPMASS=715.0
CHARGE=0
MSLEVEL=2
SOURCE_INSTRUMENT=LC-ESI-qTof
FILENAME=20121201_PAVL_Ger_LyngbyabellinA_MCl37Na_715_qb.1.1..mgf
SEQ=*..*
IONMODE=Positive
ORGANISM=GNPS-LIBRARY
NAME=Lyngbyabellin A M+H
PI=Gerwick
DATACOLLECTOR=PAVL
SMILES=CC[C@H](C)[C@H]1C2=NC(=CS2)C(=O)O[C@H](C(C(=O)O[C@H](C3=NC(=CS3)C(=O)NCC(=O)N1)C(C)(C)O)(C)C)CCCC(C)(Cl)Cl
INCHI=InChI=1S/C29H40Cl2N4O7S2/c1-8-15(2)20-23-34-17(14-43-23)25(38)41-18(10-9-11-29(7,30)31)27(3,4)26(39)42-21(28(5,6)40)24-33-16(13-44-24)22(37)32-12-19(36)35-20/h13-15,18,20-21,40H,8-12H2,1-7H3,(H,32,37)(H,35,36)/t15-,18-,20-,21+/m0/s1
INCHIAUX=N/A
PUBMED=N/A
SUBMITUSER=mwang87
LIBRARYQUALITY=1
SPECTRUMID=CCMSLIB00000001632
SCANS=1
224.465546	34586.0
435.188171	24020.0
619.129761	36093.0
620.025391	47425.0
633.067139	54188.0
634.30835	84339.0
635.105591	187662.0
635.725342	1.0
676.425659	48635.0
677.085083	6891956.0
678.096924	6661936.0
679.019531	11030076.0
679.623535	62496.0
713.948486	574029.0
714.559082	42.0
END IONS

BEGIN IONS
PEPMASS=901.443
CHARGE=1
MSLEVEL=2
SOURCE_INSTRUMENT=LC-ESI-qTof
FILENAME=d7_1.mgf
SEQ=*..*
IONMODE=Positive
ORGANISM=GNPS-LIBRARY
NAME=Etamycin M+Na
PI=Fenical-Jensen-Moore
DATACOLLECTOR=Max
SMILES=CC1C(C(=O)NC(C(=O)N2CC(CC2C(=O)N(CC(=O)N(C(C(=O)NC(C(=O)N(C(C(=O)O1)C3=CC=CC=C3)C)C)C(C)C(C)C)C)C)O)CC(C)C)NC(=O)C4=C(C=CC=N4)O
INCHI=InChI=1S/C44H62N8O11/c1-23(2)19-30-42(60)52-21-29(53)20-31(52)43(61)49(8)22-33(55)50(9)36(25(5)24(3)4)40(58)46-26(6)41(59)51(10)37(28-15-12-11-13-16-28)44(62)63-27(7)34(38(56)47-30)48-39(57)35-32(54)17-14-18-45-35/h11-18,23-27,29-31,34,36-37,53-54H,19-22H2,1-10H3,(H,46,58)(H,47,56)(H,48,57)
INCHIAUX=N/A
PUBMED=N/A
SUBMITUSER=mwang87
LIBRARYQUALITY=1
SPECTRUMID=CCMSLIB00000001633
SCANS=1
86.05941	154.020706
100.038719	152.546295
114.126373	143.931702
154.04686	232.1978
167.078247	442.783905
182.11618	248.751999
207.073547	282.224487
225.084717	813.69873
235.141541	138.859207
293.115387	255.292801
296.100677	549.716614
306.176788	302.661285
312.131653	757.208313
313.133942	175.580902
320.157593	169.033096
324.184723	159.565506
332.158173	326.255188
338.167847	446.057495
340.125763	145.566101
346.144287	326.605804
347.200989	138.359604
348.189087	3438.959961
349.191681	757.883423
350.17038	597.133911
358.136292	148.942001
363.199738	470.309601
364.156281	758.727722
365.156494	184.847107
365.208557	167.227203
366.199951	304.150513
391.230896	708.405273
392.233368	138.126404
403.194733	712.97998
421.205566	1504.813965
422.208252	337.227905
434.236633	163.970901
437.236847	5619.914062
438.239655	1767.822021
439.242004	234.806107
450.268036	2178.236084
451.271423	646.611328
453.17334	582.487122
454.177612	158.246796
461.272919	1095.467041
462.276489	398.567291
471.185455	912.681702
471.253937	224.219803
472.187683	232.657593
479.284058	157.312607
480.187256	187.690094
484.216339	648.957886
485.218262	180.988495
487.267609	1126.672974
488.2742	350.556702
491.24826	500.885712
492.249237	173.980194
498.196899	652.260315
499.198303	215.681
504.307617	443.282288
505.282928	249.151703
524.210938	1297.118042
525.214661	427.759186
530.305481	337.868011
540.315613	200.138306
542.22229	3554.862061
543.22522	1328.36499
544.22699	241.3237
544.310486	3470.89209
545.314148	1288.215942
546.318115	249.764694
550.321167	3604.025879
551.324097	1461.006958
552.327087	261.096588
555.252747	160.453705
560.305908	258.951385
561.326538	155.429306
562.321899	480.159485
563.348938	743.867615
564.354004	252.643097
570.289978	155.689301
576.3125	2904.115967
577.316406	1243.395996
578.316528	263.564514
584.30542	461.294098
585.307068	239.1922
587.351929	668.849426
588.355286	281.279999
589.350281	807.03772
590.354919	364.766907
621.301453	1583.999023
622.304321	732.60553
623.308899	220.875107
633.358154	14468.080078
634.361328	6960.188965
635.363159	1272.088989
636.366028	248.983398
638.322998	154.195694
639.318787	281.934814
646.389099	1541.142944
647.391663	701.823181
648.382385	156.130295
659.336243	287.929413
664.343079	538.025391
665.327332	9283.041992
666.330017	5374.290039
667.332703	925.834412
668.336792	195.499893
682.355225	142.611206
683.338318	992.559875
684.341553	654.25592
697.386902	228.503403
698.392883	154.740997
708.368835	1746.109985
709.372009	1220.723999
710.349365	5881.566895
711.352173	3613.190918
712.354309	688.339172
713.356262	143.386902
723.378357	571.791382
724.382568	329.603088
736.365173	1326.426025
737.370544	902.908386
738.369629	201.246399
752.42865	195.324707
753.430969	141.249893
754.374939	40683.289062
755.377808	29515.400391
756.380371	5599.727051
757.383484	1284.909058
767.405762	3868.990967
768.408875	2896.496094
769.412598	528.177979
770.414551	142.732605
780.425415	1961.411011
781.429443	1609.338013
782.43335	352.128387
806.406189	167.201401
857.43457	191.017899
858.439819	194.6306
873.448975	608.572327
874.450684	553.370422
875.453613	167.178207
901.443604	135754.40625
902.446899	100267.703125
903.448975	29853.669922
904.451416	6237.765137
905.452942	570.152588
END IONS

BEGIN IONS
PEPMASS=691.0
CHARGE=0
MSLEVEL=2
SOURCE_INSTRUMENT=LC-ESI-qTof
FILENAME=20121201_PAVL_Ger_LyngbyabellinA_MH_691_qb.1.1..mgf
SEQ=*..*
IONMODE=Positive
ORGANISM=GNPS-LIBRARY
NAME=Lyngbyabellin A M+H
PI=Gerwick
DATACOLLECTOR=PAVL
SMILES=CC[C@H](C)[C@H]1C2=NC(=CS2)C(=O)O[C@H](C(C(=O)O[C@H](C3=NC(=CS3)C(=O)NCC(=O)N1)C(C)(C)O)(C)C)CCCC(C)(Cl)Cl
INCHI=InChI=1S/C29H40Cl2N4O7S2/c1-8-15(2)20-23-34-17(14-43-23)25(38)41-18(10-9-11-29(7,30)31)27(3,4)26(39)42-21(28(5,6)40)24-33-16(13-44-24)22(37)32-12-19(36)35-20/h13-15,18,20-21,40H,8-12H2,1-7H3,(H,32,37)(H,35,36)/t15-,18-,20-,21+/m0/s1
INCHIAUX=N/A
PUBMED=N/A
SUBMITUSER=mwang87
LIBRARYQUALITY=1
SPECTRUMID=CCMSLIB00000001634
SCANS=1
193.084015	19322.0
197.851913	276039.0
198.692673	15485.0
209.894928	35264.0
210.749466	537831.0
211.468719	16.0
214.196838	17999.0
214.829346	863208.0
218.764801	12048.0
220.877228	26814.0
228.800156	23247.0
237.110199	8102.0
237.83934	80308.0
238.750183	645695.0
239.624969	4.0
255.686493	6830.0
256.850677	153326.0
257.419006	3.0
290.463623	5335.0
313.752258	4846.0
321.763489	7727.0
326.795532	31029.0
349.936005	27970.0
354.701416	31716.0
359.02594	5956.0
360.821808	27571.0
366.904419	33749.0
367.772125	12659.0
371.086182	12523.0
377.08136	9091.0
378.864807	3352.0
380.803467	12768.0
381.563232	3904.0
382.807556	7514.0
385.350708	10873.0
390.047852	20669.0
390.861542	215161.0
391.405518	6.0
394.849213	38394.0
398.872498	10852.0
399.787292	199013.0
400.466675	1.0
403.087646	8448.0
404.713989	3297.0
406.682617	20198.0
407.753906	10397.0
411.881714	7351.0
412.909454	138166.0
416.828796	2067141.0
417.562012	18389.0
418.120605	29402.0
418.843201	93223.0
422.674896	65761.0
430.761902	46132.0
434.864349	1002442.0
435.878204	226960.0
439.485291	5107.0
440.775879	1001074.0
441.434967	3699.0
448.853455	1014251.0
449.571411	10.0
451.814331	9578.0
452.824158	4288430.0
453.590393	7.0
457.859253	56678.0
458.893402	49241.0
459.54657	2.0
470.901367	143781.0
471.63208	28.0
473.747803	8676.0
475.02063	11455.0
476.76532	2001231.0
477.458557	39227.0
477.965332	4548.0
492.101379	3703.0
519.511108	6766.0
520.091064	36289.0
542.196533	4332.0
551.955322	8000.0
565.574951	4305.0
577.810486	88738.0
578.352295	3.0
578.959961	9196.0
579.870422	25381.0
587.956787	3509.0
597.033508	110757.0
597.835754	109697.0
604.914795	34139.0
605.852051	30966.0
609.096436	12539.0
614.783691	2437.0
615.778687	60720.0
616.797852	36449.0
619.070557	9798.0
625.626953	14176.0
626.95752	6795.0
627.72998	14581.0
632.895813	138188.0
633.859375	852866.0
634.483276	2.0
636.941101	423825.0
637.685547	3.0
641.362061	23151.0
645.615967	55490.0
646.402344	14.0
653.990601	22221.0
654.873474	5480920.0
655.852783	6132.0
662.186218	37946.0
662.871094	159246.0
672.885559	631611.0
673.934753	57019.0
END IONS

BEGIN IONS
PEPMASS=656.306
CHARGE=1
MSLEVEL=2
SOURCE_INSTRUMENT=LC-ESI-qTof
FILENAME=d10.mgf
SEQ=*..*
IONMODE=Positive
ORGANISM=GNPS-LIBRARY
NAME=Rifamycin W M+H
PI=Fenical-Jensen-Moore
DATACOLLECTOR=Max
SMILES=C[C@H]1/C=C/C=C(\C(=O)NC2=CC(=O)C3=C(C(=C(C(=C3C2=O)O)C)O)C(=O)/C(=C/[C@@H]([C@@H]([C@H]([C@H]([C@@H]([C@@H]([C@@H]([C@H]1O)C)O)C)O)C)O)CO)/C)/C
INCHI=InChI=1S/C35H45NO11/c1-14-9-8-10-15(2)35(47)36-22-12-23(38)24-25(32(44)20(7)33(45)26(24)34(22)46)28(40)16(3)11-21(13-37)31(43)19(6)30(42)18(5)29(41)17(4)27(14)39/h8-12,14,17-19,21,27,29-31,37,39,41-45H,13H2,1-7H3,(H,36,47)/b9-8+,15-10-,16-11+/t14-,17+,18+,19-,21+,27-,29+,30-,31+/m0/s1
INCHIAUX=N/A
PUBMED=N/A
SUBMITUSER=mwang87
LIBRARYQUALITY=1
SPECTRUMID=CCMSLIB00000001635
SCANS=1
51.022472	93.906502
53.03849	152.1483
55.017834	226.064896
55.054722	2069.459961
56.056667	98.109642
57.033981	1302.905029
57.069798	248.785995
58.037598	62.28294
59.049175	141.893707
65.038734	275.753204
67.054512	3809.833008
67.130272	74.549217
68.057655	214.683395
69.033661	1773.084961
69.069977	2046.488037
70.036819	82.573776
70.07309	151.167892
71.048912	199.145203
71.084007	95.399696
73.065453	48.326969
77.038658	1179.30603
78.043182	126.011299
79.054344	1623.651001
80.059082	147.936203
81.032158	48.991192
81.06974	2115.534912
82.072845	129.384506
83.011841	89.173363
83.049156	818.240295
83.085426	965.773315
84.052063	87.510559
84.089752	78.577179
85.064674	136.898193
85.100922	213.047394
87.042381	62.72438
91.054062	2630.916992
91.142006	49.745541
92.057785	287.366608
93.06974	4154.814941
93.159325	81.864677
94.07428	495.031403
95.048927	998.242615
95.085426	16811.400391
95.176285	398.088806
96.049355	92.250313
96.088799	1591.649048
97.02887	170.701706
97.064903	1038.897949
97.098053	247.939697
98.067848	82.035553
99.043922	83.507721
99.080269	369.577606
103.054192	288.281586
104.060539	58.036819
105.069672	3420.47998
105.166069	65.68058
106.072441	405.675201
107.049362	254.075806
107.085297	4658.299805
107.182076	84.247322
108.056297	338.654297
108.087723	609.49408
109.030907	53.676529
109.064621	6034.86377
109.0998	3661.710938
109.159889	161.714798
109.194305	93.166687
110.067459	589.656982
110.103592	404.996002
111.042587	186.095993
111.080124	5138.12793
111.178864	99.212807
112.083916	520.811584
113.058746	152.149597
113.094688	263.660614
115.055275	227.505997
116.057877	63.56493
117.069267	648.484619
118.072632	125.7957
119.049461	64.672493
119.085136	2925.64209
119.188156	57.804771
120.088974	413.833313
121.064209	2822.336914
121.10006	2733.978027
121.165382	86.755692
121.201935	57.83337
122.068893	501.556396
122.103737	456.930511
123.044426	98.388252
123.080093	9428.642578
123.112839	1945.987061
123.18251	196.450897
123.213097	74.067871
124.083687	1115.765015
125.059746	164.181107
125.09523	467.215515
126.096687	57.18819
127.069756	131.783798
127.108704	63.2052
128.061478	227.568497
129.070267	360.7005
130.077133	498.622986
131.084549	673.749207
132.087799	126.226097
133.064896	778.446411
133.100296	2360.144043
133.207993	54.202229
134.063065	184.4552
134.104034	380.895813
135.080109	2305.637939
135.114777	1297.301025
135.187561	53.335789
136.082245	418.319397
136.116577	194.1633
137.057831	190.282196
137.094849	1383.56604
138.096069	325.599792
139.075333	277.736786
139.110764	613.141418
140.113831	70.928123
141.071304	140.046906
142.077026	289.474396
143.084442	681.485779
144.091568	327.36911
145.063995	109.728104
145.100235	2743.217041
145.211578	55.868759
146.070099	162.222198
146.10379	464.142212
147.079727	655.699707
147.115952	1244.146973
148.084976	197.767303
148.117996	175.285599
149.05864	297.740112
149.09462	1089.322021
149.128235	460.19989
150.099228	179.883408
150.132294	63.888359
151.074738	8936.595703
151.189377	171.620407
151.21936	73.590073
152.078278	1230.010986
153.084473	213.199203
153.123627	102.429001
154.079483	74.559639
155.086914	345.326294
156.091949	266.934998
157.100204	755.997986
158.072754	210.560196
158.104019	301.773285
159.079498	419.455811
159.115402	1153.07605
160.085052	250.8965
160.117447	251.434494
161.095932	2224.018066
162.099472	439.623993
163.110825	2590.129883
164.114578	451.159088
165.087952	155.0634
165.124924	214.882797
166.085007	74.331863
166.128036	53.67625
167.101837	217.889694
168.096191	74.05867
169.099457	194.696304
170.107605	419.991211
171.114731	455.420898
172.038101	88.529083
172.086365	234.611603
172.118362	167.068893
173.095169	1234.379028
173.129135	908.200684
174.05484	53.66898
174.100998	372.25119
174.131393	225.398697
175.111053	1212.092041
175.145462	916.284424
176.071289	143.313004
176.113037	295.453491
176.148193	179.781601
177.089905	390.256989
177.124161	428.918915
178.092651	96.589157
178.126816	120.330498
179.105469	1104.661987
180.108185	173.786301
181.113281	119.484901
182.107559	96.092232
183.077713	64.779442
183.115326	262.423309
184.121567	90.222733
185.094513	121.819397
185.131226	522.639526
186.103348	183.176102
186.133316	158.667007
187.110184	426.885193
187.144791	288.211792
188.117706	154.6763
188.146835	109.218498
189.087448	136.484604
189.127563	384.162689
190.048752	98.625
190.12973	100.685501
191.106369	1085.074951
192.108704	220.742706
193.117447	159.270203
195.118881	210.587799
196.119568	106.670601
197.126541	155.373093
198.099396	75.105927
198.130173	57.36557
199.072891	72.205421
199.110291	169.100998
199.142929	100.680199
200.033035	112.454102
200.118057	87.257736
201.127609	346.860504
202.129913	91.791107
203.045502	70.492737
203.141785	558.044373
204.064484	93.014679
204.144775	131.508606
205.141159	112.864197
206.116501	52.462959
207.118454	60.043709
208.123657	61.5229
209.117828	218.180405
210.135788	125.786697
211.137543	149.395996
212.136353	54.442181
213.062775	74.134773
213.126587	338.045105
214.054276	55.745461
214.131622	147.8582
215.141251	209.755096
215.173401	164.094696
216.063278	92.070763
216.147491	57.699921
217.050858	111.557701
217.116852	77.382317
217.155548	143.924393
218.06987	69.697937
219.031891	104.591904
219.134964	98.762032
220.060669	240.511307
220.12468	65.418091
221.145554	61.401218
223.11113	109.998596
223.14679	60.213001
224.117004	80.918556
225.159561	175.799393
226.084656	60.339512
226.129608	61.55904
226.16217	51.148762
227.069626	205.717697
227.13913	86.325111
227.174881	62.622139
228.028534	195.581802
228.065735	152.781296
228.149658	49.422779
229.060257	112.361198
229.11647	84.015167
229.153824	89.892227
230.065689	81.166786
231.031769	771.528076
231.135605	322.278412
232.059647	1455.041016
232.138245	114.876503
233.06163	283.551392
233.1474	63.130428
233.18811	61.560291
234.065811	58.28685
235.159409	154.127701
237.121826	52.254349
238.131561	63.369961
239.067917	80.933823
240.0802	57.387989
241.075378	130.649094
241.155731	83.329109
242.07663	193.368393
243.067047	309.584015
243.174088	322.708313
244.062973	427.854889
244.176727	78.188469
245.068359	212.926193
246.039169	20470.890625
247.042587	3288.270996
247.139374	61.571301
248.047119	559.916809
249.061005	98.159821
249.14769	110.650902
250.082535	59.770859
251.075317	67.10659
252.085495	73.297997
253.077225	141.947205
253.158066	152.003098
254.081787	148.755798
255.067963	434.972992
256.066772	385.454895
257.069305	394.587402
258.075653	1187.60498
259.069519	395.166901
260.075378	129.567703
261.077881	49.528488
261.18338	92.010597
263.09549	61.801208
265.091431	54.117611
266.081757	124.484497
267.081726	110.009201
268.08728	148.642395
269.070953	531.536926
270.075897	892.860474
271.080017	566.653076
271.168457	232.419495
272.08905	967.657471
272.166504	93.708328
273.065735	650.772522
274.070404	2135.298096
275.075684	636.389587
276.084412	270.037994
277.084991	77.513763
278.089325	79.530029
279.092072	153.036407
280.09436	197.409698
281.079071	185.602707
282.080017	303.773804
283.080933	226.720398
284.090851	621.927185
285.089844	191.587402
286.082428	276.032715
287.076477	79.259644
288.085938	196.920502
289.086639	65.608414
289.178925	177.272705
290.180115	66.357849
291.098694	78.895569
292.096313	140.875198
293.096924	106.656502
294.087372	237.657104
295.083069	380.346191
296.089996	676.183228
297.085815	299.197815
298.087036	361.297607
299.095917	118.919701
300.085602	304.169891
301.09079	95.93251
302.099152	57.949268
305.091522	57.230541
306.106506	116.821198
307.094788	140.805496
308.094238	263.412292
309.097443	229.213806
310.10498	345.89679
311.098969	144.406799
312.08783	857.638184
313.090576	237.583405
314.102325	612.223389
315.105072	180.830902
316.114532	52.357658
317.104584	57.1115
318.113342	80.801132
319.108887	96.513947
320.095337	193.050797
321.098755	173.090103
322.107208	298.914001
323.086456	253.625107
324.089142	294.079315
325.104584	132.798004
326.101501	420.476715
327.10318	171.602097
328.08606	73.042099
330.107544	94.084106
331.108887	69.140869
332.111511	74.878967
333.094727	127.450401
334.106903	161.286102
335.110657	125.7686
336.115936	225.179306
337.107178	126.1138
338.114288	306.576202
339.11145	138.8461
340.113464	169.546799
341.123108	57.277401
342.099213	277.387787
343.113007	96.644371
344.12146	119.154503
345.119415	52.45322
346.110931	129.103897
347.115479	119.670303
348.106201	189.960495
349.111633	188.271103
350.109772	244.260193
351.108734	109.182297
352.116699	292.959503
353.114136	92.758087
354.130219	213.576401
355.133667	73.398972
359.122803	79.600708
360.117859	148.683502
361.130554	92.411827
362.132904	154.081696
363.132355	96.985207
364.125214	247.980499
365.130066	119.012001
366.112091	340.6185
367.117126	146.450302
368.117981	132.761002
369.11795	60.555569
370.134064	83.659019
372.132782	73.184937
373.132416	76.751953
374.127594	95.000183
375.137573	81.750053
376.141968	157.860504
377.13678	82.350594
378.13147	199.708694
379.136536	171.503601
380.142456	132.078903
382.136902	100.8013
384.139923	51.207069
386.13208	107.300903
388.150116	86.649498
390.134247	92.146332
391.1427	169.856903
392.139679	258.634613
393.139801	91.608124
394.138855	338.11261
395.140961	164.038895
396.14032	179.804001
397.142303	61.34444
400.141418	107.477898
402.156464	55.047359
404.148041	84.658882
406.159912	226.788895
407.15921	148.095703
408.152374	92.220161
409.151917	52.45982
410.15448	82.904091
411.158295	67.93959
412.175323	115.026802
416.151611	70.407333
418.149078	61.37466
422.161865	90.274406
423.164307	50.5508
424.150665	86.128937
426.156982	104.276398
432.163483	54.16695
434.166595	148.325897
435.16571	81.564987
436.170349	72.944443
440.168457	162.555099
441.178223	74.479332
446.163269	65.582733
448.173645	58.94495
450.18576	79.716217
452.200378	85.930603
458.185547	59.69175
462.164032	105.595703
464.174225	166.031494
465.175171	61.545792
466.186615	50.983089
468.197815	51.723221
474.190643	65.337914
476.188538	71.228798
478.185455	53.037331
480.19635	99.653343
482.181213	128.4077
483.186249	71.061638
484.192566	73.449158
492.194855	60.997509
498.207672	87.948593
499.212921	49.490921
520.204102	49.152538
544.230957	104.340103
545.235596	48.769211
554.255188	115.354301
555.254944	50.30114
556.265442	64.551567
562.244873	76.006721
563.25415	53.853241
566.251892	79.7285
572.264343	333.174591
573.266846	196.509506
574.275696	145.210693
584.264099	384.036499
585.267029	192.141998
586.268494	68.644119
590.275208	274.585602
591.273926	129.611099
592.28302	59.384991
602.274658	1052.504028
603.277832	620.247925
604.280396	197.627701
620.284607	846.984375
621.287476	482.504913
622.288025	126.424797
638.296326	154.490997
639.297791	113.191498
656.309082	53.11338
END IONS

BEGIN IONS
PEPMASS=713.0
CHARGE=0
MSLEVEL=2
SOURCE_INSTRUMENT=LC-ESI-qTof
FILENAME=20121201_PAVL_Ger_LyngbyabellinA_MNa_713_qb.1.1..mgf
SEQ=*..*
IONMODE=Positive
ORGANISM=GNPS-LIBRARY
NAME=Lyngbyabellin A M+Na
PI=Gerwick
DATACOLLECTOR=PAVL
SMILES=CC[C@H](C)[C@H]1C2=NC(=CS2)C(=O)O[C@H](C(C(=O)O[C@H](C3=NC(=CS3)C(=O)NCC(=O)N1)C(C)(C)O)(C)C)CCCC(C)(Cl)Cl
INCHI=InChI=1S/C29H40Cl2N4O7S2/c1-8-15(2)20-23-34-17(14-43-23)25(38)41-18(10-9-11-29(7,30)31)27(3,4)26(39)42-21(28(5,6)40)24-33-16(13-44-24)22(37)32-12-19(36)35-20/h13-15,18,20-21,40H,8-12H2,1-7H3,(H,32,37)(H,35,36)/t15-,18-,20-,21+/m0/s1
INCHIAUX=N/A
PUBMED=N/A
SUBMITUSER=mwang87
LIBRARYQUALITY=1
SPECTRUMID=CCMSLIB00000001636
SCANS=1
462.785706	75366.0
596.894531	111689.0
618.974609	150325.0
619.639648	19.0
633.159424	702240.0
633.87915	4.0
676.012451	32682.0
677.015137	46116464.0
677.867188	78.0
END IONS

BEGIN IONS
PEPMASS=678.29
CHARGE=1
MSLEVEL=2
SOURCE_INSTRUMENT=LC-ESI-qTof
FILENAME=d10_1.mgf
SEQ=*..*
IONMODE=Positive
ORGANISM=GNPS-LIBRARY
NAME=Rifamycin W M+Na
PI=Fenical-Jensen-Moore
DATACOLLECTOR=Max
SMILES=C[C@H]1/C=C/C=C(\C(=O)NC2=CC(=O)C3=C(C(=C(C(=C3C2=O)O)C)O)C(=O)/C(=C/[C@@H]([C@@H]([C@H]([C@H]([C@@H]([C@@H]([C@@H]([C@H]1O)C)O)C)O)C)O)CO)/C)/C
INCHI=InChI=1S/C35H45NO11/c1-14-9-8-10-15(2)35(47)36-22-12-23(38)24-25(32(44)20(7)33(45)26(24)34(22)46)28(40)16(3)11-21(13-37)31(43)19(6)30(42)18(5)29(41)17(4)27(14)39/h8-12,14,17-19,21,27,29-31,37,39,41-45H,13H2,1-7H3,(H,36,47)/b9-8+,15-10-,16-11+/t14-,17+,18+,19-,21+,27-,29+,30-,31+/m0/s1
INCHIAUX=N/A
PUBMED=N/A
SUBMITUSER=mwang87
LIBRARYQUALITY=1
SPECTRUMID=CCMSLIB00000001637
SCANS=1
67.053612	33.357441
69.068794	43.01762
80.025047	36.023849
81.068687	48.390629
83.046127	22.4116
91.052292	32.043732
93.026405	26.05442
93.068993	71.114922
95.084694	239.930298
96.086304	23.26347
97.028496	16.15653
97.062225	19.07622
107.004723	16.714279
107.085411	45.259659
108.053215	14.87167
109.025246	34.758732
109.064384	44.136509
109.097557	40.868649
110.069405	21.71488
111.040787	26.737101
111.079659	44.307598
113.057121	14.61964
119.081917	15.30651
121.064247	22.0159
121.102669	18.954161
122.099136	18.399851
123.079529	80.750214
131.044998	13.47816
133.060547	14.2373
133.097656	27.836929
135.080154	36.479988
135.111511	17.928881
136.047592	21.789961
136.082092	16.521151
137.056503	32.772141
137.0923	18.629101
139.072861	30.48814
140.080414	28.14526
145.059723	75.007431
145.097595	21.39522
147.119888	23.630301
148.08107	13.26322
151.072968	47.920971
152.070969	12.82013
160.072372	21.426201
161.093033	17.450001
163.072464	17.520479
163.114487	36.286301
165.092331	17.54001
167.063492	14.62741
167.098984	14.27305
168.072342	21.325871
174.090622	14.2034
177.085144	21.038799
179.099777	19.38702
190.082718	86.430809
193.085159	13.28869
195.095139	20.44383
197.110214	32.63393
203.102661	26.54179
205.115952	13.10868
209.116501	20.27976
213.119476	19.57449
214.088181	13.51897
218.114548	19.935101
225.11554	24.17021
231.101105	13.01284
235.133759	21.67429
242.04274	23.23292
246.039642	36.26683
248.124771	50.27272
249.117523	21.6115
251.125488	40.50893
252.132538	13.14762
253.013	55.204868
253.138504	13.17143
254.011185	14.50031
265.049103	23.366461
266.039062	15.36607
267.048248	54.319328
268.022827	169.148605
269.029419	154.871094
270.032928	43.364399
279.152649	14.98864
280.057312	116.796997
281.049927	35.029171
288.053284	32.838188
289.145203	28.377239
291.074249	14.71429
291.153351	28.031441
293.04126	39.211071
293.169373	13.97355
294.070648	15.73087
295.047699	33.017422
296.05191	89.921288
297.053162	23.832569
298.06424	15.32037
300.044739	15.71429
303.192535	14.21794
306.065582	12.86783
306.163391	17.01948
307.064148	29.269871
307.150055	19.92301
308.052734	73.150146
309.056458	34.681309
309.16394	48.15152
310.068542	17.63896
311.183167	13.53483
312.076233	16.03627
317.064026	12.92092
318.076447	31.381081
319.057312	38.800591
320.069092	23.50922
322.069061	22.4842
334.068604	42.90406
335.076904	38.104141
336.085876	56.049999
337.066132	24.550369
338.069	22.35137
347.076477	22.03133
352.078461	79.153252
353.083405	27.376431
354.092041	82.572243
355.093018	15.78041
362.057648	31.40663
364.077637	76.533241
366.11795	13.30952
367.075592	23.0686
372.081421	15.90549
374.101471	17.44533
376.119659	28.1476
380.11142	23.22912
382.088654	186.733093
383.089264	45.667999
390.099762	27.808081
391.098969	57.797951
392.108978	62.003441
393.110901	27.942909
400.11499	13.88458
402.121582	19.922661
403.130768	24.0023
410.121643	19.246429
414.136078	21.922291
415.135498	36.57143
415.250275	13.87753
417.115417	18.01755
418.131195	25.462391
419.117554	38.503181
420.10437	56.026791
420.228394	16.386311
421.112518	22.74695
422.122833	28.359131
425.12561	23.8188
426.123108	18.85165
428.126068	19.5928
429.113892	21.28661
430.122894	60.5397
431.132843	111.676201
431.234161	17.072001
432.138153	41.608292
433.14267	27.64974
438.128845	16.309521
440.13092	144.284607
441.13559	68.823341
442.149658	22.23913
443.146088	19.33271
444.145386	20.58157
445.14566	21.214359
446.137482	17.646879
447.134186	33.624371
448.166382	20.154989
448.26828	53.34626
449.275116	16.557329
450.143951	20.452021
451.156311	21.000469
456.13736	79.577957
457.142303	40.361519
458.155182	119.245003
459.154938	51.78326
460.167847	38.03841
461.157227	17.79599
462.149628	33.574181
468.153168	65.446121
469.152893	24.53219
472.173645	16.786989
473.148865	14.80289
474.152496	152.488693
475.158966	71.611221
476.168091	201.482498
477.16803	106.239502
478.150177	47.817169
480.155792	29.05792
484.168793	20.143101
486.152832	320.99411
487.154907	148.300903
488.158234	48.240871
489.169952	54.41114
490.184937	23.49185
496.185944	21.46875
497.152313	17.398621
498.170654	137.901001
499.171021	61.323971
500.186127	14.32002
501.196564	13.22321
502.181427	46.614319
503.164001	15.12895
504.162933	977.054077
505.165619	381.382111
506.170593	89.476547
508.189301	30.77899
509.220428	13.25238
514.179138	62.621609
515.190369	13.39315
516.200378	42.637459
518.207092	14.30029
519.185791	13.44882
526.175049	33.970421
527.188965	20.24328
529.197632	14.39806
532.198181	66.493843
533.19458	42.89286
534.207031	90.823807
535.195801	39.42662
536.192444	24.792021
537.182007	17.00102
538.200989	15.17831
539.206299	15.18951
544.195007	153.854599
545.19873	78.673492
546.202881	14.75188
548.218323	19.357571
554.21228	18.60289
556.225952	20.08359
557.20813	19.91745
562.203308	642.93219
563.209595	369.946899
564.205627	76.286293
565.217407	27.717859
566.241516	21.950439
567.224121	26.014879
572.219971	43.15588
574.240417	19.06922
575.238403	30.991739
584.220459	41.65456
585.223145	14.21147
587.247925	13.08929
590.233948	30.126431
592.243652	18.72611
593.235413	23.177521
602.234802	143.192001
603.243042	100.974503
604.238831	35.557209
612.245178	14.73661
613.259277	21.748581
614.27002	13.75223
617.262634	13.21518
618.261902	18.135571
620.2453	592.299927
621.250977	376.624908
621.370789	13.7381
622.255554	93.928711
624.246155	13.82095
630.265686	70.457169
631.265991	57.235031
632.27832	44.792999
633.281494	31.032061
634.300781	16.05397
642.265381	102.944901
643.268311	39.94434
643.766235	19.86985
647.266479	22.440701
648.276855	69.786461
649.265564	34.52573
650.290405	98.941742
651.296875	94.754494
652.299316	21.44589
660.277466	394.664703
661.282227	299.680908
662.285461	90.796577
671.993896	14.01384
678.146667	22.414631
678.288147	12678.540039
678.525146	150.396393
678.755066	19.70853
679.29126	7287.351074
679.531433	87.134178
679.602661	38.460701
679.716553	28.131081
679.956604	15.81114
680.294312	2044.06897
680.540039	25.439791
680.632324	15.63333
680.946594	20.798309
681.11499	29.41781
681.297424	380.51059
681.447632	24.305321
681.532959	13.06266
681.625916	15.94748
681.740479	12.77272
681.891235	18.014641
682.287659	35.074928
682.495056	12.85855
682.838867	17.171101
876.61676	19.79464
1111.390625	12.74049
1250.297729	14.11828
1301.545532	19.415819
1600.276367	19.227421
END IONS

BEGIN IONS
PEPMASS=737.4
CHARGE=0
MSLEVEL=2
SOURCE_INSTRUMENT=LC-ESI-Ion Trap
FILENAME=20121205_Jenia_Ger_Antanapeptin_A_MH737-qb.1.1..mgf
SEQ=*..*
IONMODE=Positive
ORGANISM=GNPS-LIBRARY
NAME=Antanapeptin A M+H
PI=Gerwick
DATACOLLECTOR=Jenia
SMILES=CCC(C)[C@@H]1N(C)C(=O)[C@@H]2CCCN2C(=O)[C@@H](OC(=O)[C@H](CC2=CC=CC=C2)N(C)C(=O)[C@@H](NC(=O)C(C)C(CCCC#C)OC1=O)C(C)C)C(C)C
INCHI=InChI=1S/C41H60N4O8/c1-11-13-15-22-32-28(8)36(46)42-33(25(3)4)38(48)43(9)31(24-29-19-16-14-17-20-29)40(50)53-35(26(5)6)39(49)45-23-18-21-30(45)37(47)44(10)34(27(7)12-2)41(51)52-32/h1,14,16-17,19-20,25-28,30-35H,12-13,15,18,21-24H2,2-10H3,(H,42,46)/t27?,28?,30-,31-,32?,33-,34-,35-/m0/s1
INCHIAUX=HEWGADDUUGVTPF-CVZHIFNESA-N
PUBMED=N/A
SUBMITUSER=mwang87
LIBRARYQUALITY=1
SPECTRUMID=CCMSLIB00000001638
SCANS=1
232.969208	20133.0
234.07251	21134.0
259.264465	10825.0
261.822266	36779.0
272.843079	6522.0
289.213501	43645.0
289.959961	5.0
306.935181	4013.0
323.104248	59464.0
323.844421	3.0
324.883972	545424.0
325.649963	8.0
330.959595	591988.0
331.685669	14.0
342.873291	31481.0
343.706299	42020.0
357.05188	13057.0
358.799377	1295868.0
367.177002	26293.0
376.993469	485963.0
377.661072	12.0
378.940369	210382.0
386.812256	8153.0
395.07843	111709.0
413.126465	6926.0
448.220947	5222.0
448.92157	36613.0
457.859009	42035.0
475.890747	67335.0
476.974365	7296.0
483.832275	42410.0
485.990967	3472921.0
486.817871	26.0
494.675537	76265.0
495.315491	30.0
502.942932	76255.0
504.004211	8752910.0
504.611206	4006.0
512.97229	25062.0
539.9104	118021.0
540.622192	6.0
547.936035	235028.0
548.800049	1.0
557.283936	15338.0
558.072388	1579110.0
558.895142	7.0
575.979248	495675.0
582.082275	106848.0
582.733276	1.0
591.671875	21719.0
607.151367	15133.0
610.086914	958258.0
610.97168	97095.0
611.590088	27.0
637.026855	25594.0
708.118286	40541.0
709.130981	3576485.0
709.845215	72.0
717.769043	26935.0
719.120972	142765.0
735.653442	12142.0
736.264282	39750.0
END IONS

BEGIN IONS
PEPMASS=640.312
CHARGE=1
MSLEVEL=2
SOURCE_INSTRUMENT=LC-ESI-qTof
FILENAME=d11.mgf
SEQ=*..*
IONMODE=Positive
ORGANISM=GNPS-LIBRARY
NAME=8-Desoxyrifamycin W M+H
PI=Fenical-Jensen-Moore
DATACOLLECTOR=Max
SMILES=N/A
INCHI=N/A
INCHIAUX=N/A
PUBMED=N/A
SUBMITUSER=mwang87
LIBRARYQUALITY=1
SPECTRUMID=CCMSLIB00000001639
SCANS=1
51.023865	156.465897
53.039749	335.942688
55.018387	531.334778
55.054607	4876.655762
55.12315	107.624001
56.057858	207.604706
57.033978	2930.094971
57.069618	832.214722
58.037403	89.692841
59.050442	517.799377
65.039108	533.784973
67.054497	8017.495117
67.130966	165.386597
68.057854	505.411285
69.033676	3723.659912
69.07	5711.696777
69.148705	135.247192
70.037018	172.005295
70.073692	413.288513
71.049454	615.913513
71.084854	188.893097
77.038696	2507.38208
78.043488	228.144104
79.054108	2774.450928
80.05851	275.186798
81.070038	5382.576172
81.153954	114.473396
82.073288	455.530609
83.012024	165.071793
83.048637	877.774597
83.085381	2076.910889
84.088715	179.408997
85.028252	88.454536
85.065285	379.128693
87.044525	358.631714
91.054329	5049.539062
91.143593	91.065277
92.058884	334.764008
93.069931	8002.216797
93.159889	157.361893
94.074013	969.480225
95.049088	1427.427002
95.085518	27504.150391
96.048431	231.6315
96.088989	2612.743896
97.028076	267.325592
97.06472	2379.754883
97.098099	546.039978
98.066902	132.572906
99.044479	149.681305
99.08017	825.566223
103.053978	615.792786
104.060028	105.694199
105.069679	7538.160156
105.165955	150.920303
106.073036	881.226929
107.048912	469.053986
107.085403	7697.839844
107.182549	127.815598
108.057343	477.645508
108.087936	857.510376
109.030022	93.307709
109.064667	13730.280273
109.099846	8664.063477
109.159935	362.729889
109.194389	193.547501
109.221741	107.987297
110.067902	1438.365967
110.103241	984.917725
111.042885	170.805099
111.080086	12798.0
111.1791	277.696411
111.206047	109.333397
112.083626	1281.509033
113.059654	406.762787
113.09536	1067.496948
114.099861	114.4627
115.055832	370.506805
116.061142	247.460297
117.069633	1235.680054
118.07476	186.214203
119.049149	102.693001
119.085068	5662.451172
119.187241	117.336098
120.08847	666.160706
121.026878	89.34494
121.064705	4916.262207
121.100395	8272.012695
121.202179	180.905304
122.069244	851.293579
122.103706	1025.220947
123.044281	170.380295
123.080109	15432.990234
123.11364	4214.585938
123.182159	315.435394
124.083534	1795.68396
124.115295	530.84021
125.059296	210.487701
125.094765	1226.671997
126.098549	138.280106
127.070938	269.385712
127.108849	178.706406
128.062027	597.535583
129.078705	676.883423
130.076675	943.743225
131.084732	1567.71106
132.089188	283.28479
133.064453	1490.168945
133.100418	5414.349121
133.207336	117.370399
134.065506	368.7211
134.103775	765.465271
135.044571	100.735703
135.080322	3877.89502
135.114716	2457.148926
135.18605	98.132156
136.082687	736.868591
136.116577	344.225494
137.059494	395.347687
137.095352	2611.168945
138.096298	529.197205
139.074631	375.009003
139.110367	1379.527954
140.115707	228.241501
141.068756	263.402893
142.077835	610.508728
143.084915	1421.915039
144.089615	513.057922
145.062958	264.977386
145.100174	5319.229004
145.211914	93.536423
146.071808	440.426605
146.103836	799.000122
147.080338	1105.27002
147.115448	2164.456055
148.084244	355.640289
148.118164	430.084991
149.058487	581.150085
149.095016	2400.376953
149.13002	1569.208008
150.098114	450.683899
150.131958	219.218307
151.074692	13140.759766
151.189178	251.602707
152.078094	1847.060059
153.084747	357.618713
153.121231	116.144897
154.074722	115.858398
155.087921	490.555786
156.093292	511.72049
157.100449	1807.629028
158.072861	420.002808
158.105576	563.670471
159.079483	818.040283
159.115387	1983.730957
160.087326	489.963715
160.119141	506.234009
161.058197	96.976303
161.095764	4259.217773
161.128342	1508.890015
161.215012	88.778252
162.057144	129.039001
162.098663	799.140991
162.133392	276.50061
163.110825	4503.917969
164.113998	705.422791
165.089172	293.25589
165.121277	268.144012
167.104965	580.355713
168.094269	152.480499
169.100128	462.439697
170.107941	903.020996
171.115204	1030.514038
172.040482	148.059692
172.086258	430.518707
172.119247	354.805389
173.095245	2376.804932
173.128952	1728.267944
174.052811	111.529404
174.101013	963.699219
174.131454	445.996399
175.070923	119.770103
175.111069	2014.310059
175.14621	1813.196045
176.070435	220.369995
176.112701	414.9151
176.148376	438.8172
177.090286	802.874573
177.124634	933.168579
178.093201	152.427307
178.124557	191.476105
179.106506	1908.115967
180.1082	393.018097
180.143372	146.356094
181.107727	161.372803
182.106781	136.769302
183.079361	156.175095
183.115005	450.895996
184.121979	156.634598
185.130539	1031.892944
186.102844	451.395386
186.132996	284.084412
187.072891	88.611603
187.110733	777.889587
187.143768	475.343201
188.118347	306.094788
189.088043	213.760498
189.127899	804.669678
190.05188	162.041794
190.080917	114.819702
190.130585	206.958405
191.106033	1779.322998
192.108536	336.223602
193.112198	195.812698
194.107773	99.052513
195.120316	402.977905
196.122391	212.737396
197.057983	97.10376
197.09137	163.803894
197.129395	241.722794
198.103363	171.778702
199.109467	302.906006
199.143555	167.1035
200.034409	184.791306
200.06485	136.444702
200.117142	124.956902
200.146088	114.715302
201.047501	166.917206
201.12706	768.107483
202.078369	105.524696
202.127777	177.578598
203.036453	189.226196
203.142181	1150.657959
204.064301	152.3638
204.146255	259.075409
205.155457	205.866898
207.117859	137.348999
209.11792	316.325287
210.137589	316.03299
211.109009	259.332214
211.143219	218.815201
212.075317	96.673958
212.119949	146.0923
213.071259	97.857986
213.126266	745.25647
214.077744	125.397003
214.131332	183.613297
215.070389	241.574402
215.14064	398.124695
215.174042	285.997986
216.066025	136.815506
216.144699	100.268501
217.049438	539.064819
217.121338	131.583496
217.152161	92.080009
218.065918	169.680695
219.034622	177.377701
219.077499	128.884796
219.136658	192.162094
220.058884	456.674591
220.12587	170.987396
221.06601	110.916801
221.144333	117.812698
223.111298	225.637604
223.143234	117.528503
224.070602	92.58403
224.114059	131.151703
225.082275	148.923004
225.121857	114.589798
225.162033	404.670105
226.0867	152.628906
226.166702	130.936096
227.069107	256.448608
227.139969	103.595901
227.171585	99.432487
228.027695	309.571014
228.062286	360.336792
229.061966	396.577789
229.114578	201.288498
229.154968	181.364594
230.070557	241.339005
231.032028	1101.218018
231.137604	541.852112
232.059448	2385.423096
232.136902	191.225006
233.061966	418.414215
233.15152	112.615501
235.075195	151.931396
235.146271	161.622299
238.082977	111.506203
238.13266	133.070404
239.072037	215.961807
240.072601	212.339096
241.065277	320.324005
241.155884	213.957001
242.079727	560.644775
243.071304	519.659973
243.173767	617.077576
244.064438	677.942078
244.176392	155.972702
245.067459	626.074524
246.039352	26871.960938
247.043015	4596.081055
248.049835	949.131592
249.057175	162.712204
249.14743	139.680603
250.084305	92.008926
252.09021	105.888901
253.076599	291.38501
253.156479	283.042908
254.08165	393.807312
255.074799	757.21698
255.171799	115.837402
256.068756	821.383972
257.079468	3466.643066
258.077728	2930.25708
259.075958	1108.704956
259.166718	117.000298
260.079773	303.277191
261.184631	157.116699
263.086731	140.538498
264.089661	89.826286
265.085114	163.478607
266.086731	205.627701
267.07666	176.6082
268.07959	306.691986
269.085632	309.127197
270.078857	983.742126
271.083069	1632.894043
271.168243	660.274902
272.089661	2327.306885
272.169556	207.942505
273.077393	611.15863
273.182159	125.098396
274.071045	4258.768066
275.073792	1150.146973
276.083801	493.689514
277.088928	122.861801
278.095398	88.397423
279.092926	200.720505
280.097656	565.692078
281.084717	593.272278
282.081085	427.644592
283.087189	971.812317
284.091156	675.832825
285.093628	300.305786
286.088013	469.0
287.085999	201.081696
288.087219	530.337708
289.092163	175.100906
289.179596	435.109192
290.104462	90.362061
290.18219	149.807297
291.093536	96.746681
292.099701	198.257599
293.097961	207.251495
294.096619	269.338715
295.090179	442.350891
296.091827	762.882812
297.094086	336.81781
298.106476	2367.150879
299.098206	1115.259033
300.092682	418.631195
301.099121	131.460098
304.098328	101.4394
305.109772	105.054604
306.108246	184.753601
307.09671	159.912003
308.093445	691.767212
309.092133	526.657471
310.104736	995.867676
311.102234	465.135986
312.107178	295.242188
314.102631	1117.845947
315.105652	403.401398
316.116852	1166.145996
317.120575	325.369507
318.116516	124.770897
319.110687	122.582199
320.099304	248.356705
321.106445	441.477509
322.107025	355.060089
323.104828	276.950592
324.103821	382.337189
325.101776	136.838898
326.101898	2460.884033
327.104462	733.702881
328.115265	353.071198
329.115662	187.832397
330.122711	104.4366
331.112701	90.384171
332.115662	199.431793
333.107239	188.123596
334.110077	241.871399
335.116272	208.073502
336.110352	341.101715
337.111053	240.459595
338.118896	630.149109
339.122711	259.8591
340.123444	253.266098
341.123474	115.033997
342.113708	111.000099
344.116638	317.791687
345.112915	174.848495
346.115417	189.958694
347.116394	107.086601
348.121368	382.452301
349.116089	252.968094
350.111176	366.316986
351.113953	277.998901
352.102997	338.083588
353.111633	183.9095
354.130707	329.569305
356.146667	190.993301
357.143433	97.237923
358.136902	90.235046
360.119202	255.854996
361.129395	196.534103
362.136047	228.437103
363.12088	105.688301
364.119781	244.420502
365.124847	129.141006
366.128876	785.908813
367.130371	323.987091
368.118317	296.310608
369.126648	90.806007
373.13266	137.317505
374.136292	169.854507
375.142822	110.361397
376.123199	221.1819
377.124359	212.226303
378.138733	304.198486
379.140015	355.980408
380.148499	567.946228
381.149445	173.564301
384.145416	379.797913
385.141663	163.958496
386.152283	114.477699
388.153168	119.652496
390.141388	190.771606
391.157013	118.448097
392.139343	213.778305
393.13562	119.328102
394.129303	786.301086
395.134979	372.227997
396.158722	234.257095
397.162415	107.954697
400.150513	131.338806
401.158325	91.001106
402.156128	184.349792
404.147766	102.945
406.155518	170.425903
408.149109	449.601105
409.153656	159.095398
414.190552	194.060303
418.168243	231.080902
419.171722	151.896301
420.172363	143.840195
424.167603	333.169006
425.175507	108.128998
426.174957	112.197998
434.164459	121.111198
436.175232	654.493225
437.182495	168.334198
438.175201	109.323799
442.183136	194.569
446.159607	175.443802
448.177094	209.449295
450.186127	120.750504
454.221741	194.656403
464.187073	218.062607
465.194244	131.908798
466.188416	221.118896
476.205383	142.300797
482.205811	270.544586
483.210297	133.030502
484.201538	98.923683
494.214813	178.276901
500.228149	150.347107
504.199127	88.588654
506.217651	117.213997
522.210266	108.184898
524.227966	162.3815
528.23407	122.810402
529.249451	89.450943
546.247375	306.015106
547.249634	118.1595
558.286438	150.731705
559.286499	88.218559
568.269226	272.75589
569.269897	154.398697
586.279968	1446.196045
587.282227	834.015625
588.284485	205.488495
604.290405	2158.922119
605.294312	1264.540039
606.296753	378.960785
622.301819	408.964386
623.30304	161.630905
640.309692	117.430099
END IONS

BEGIN IONS
PEPMASS=759.23
CHARGE=0
MSLEVEL=2
SOURCE_INSTRUMENT=LC-ESI-Ion Trap
FILENAME=20121205_Jenia_Ger_Antanapeptin_A_MNa759.2-qb.1.1..mgf
SEQ=*..*
IONMODE=Positive
ORGANISM=GNPS-LIBRARY
NAME=Antanapeptin A M+Na
PI=Gerwick
DATACOLLECTOR=Jenia
SMILES=CCC(C)[C@@H]1N(C)C(=O)[C@@H]2CCCN2C(=O)[C@@H](OC(=O)[C@H](CC2=CC=CC=C2)N(C)C(=O)[C@@H](NC(=O)C(C)C(CCCC#C)OC1=O)C(C)C)C(C)C
INCHI=InChI=1S/C41H60N4O8/c1-11-13-15-22-32-28(8)36(46)42-33(25(3)4)38(48)43(9)31(24-29-19-16-14-17-20-29)40(50)53-35(26(5)6)39(49)45-23-18-21-30(45)37(47)44(10)34(27(7)12-2)41(51)52-32/h1,14,16-17,19-20,25-28,30-35H,12-13,15,18,21-24H2,2-10H3,(H,42,46)/t27?,28?,30-,31-,32?,33-,34-,35-/m0/s1
INCHIAUX=HEWGADDUUGVTPF-CVZHIFNESA-N
PUBMED=N/A
SUBMITUSER=mwang87
LIBRARYQUALITY=1
SPECTRUMID=CCMSLIB00000001640
SCANS=1
285.834229	3706.0
319.369507	2132.0
379.121216	5248.0
435.039551	1397.0
508.542664	2609.0
524.076538	5247.0
535.160889	44391.0
536.272217	18837.0
538.891113	9763.0
551.909912	1199.0
561.998535	2979.0
579.746338	7247.0
598.307373	46740.0
599.199951	1.0
602.980713	3861.0
607.827148	1990.0
614.072998	2932.0
620.97998	13169.0
632.200195	1465485.0
633.241211	454776.0
633.949951	8.0
645.276733	8872.0
646.057861	2061.0
651.410889	1817.0
660.505371	2005.0
690.963135	3208.0
695.42749	676.0
700.238403	5924.0
715.490234	7401.0
731.150635	10295.0
732.110474	1494.0
758.456421	21493.0
759.272461	1283110.0
760.262085	69068.0
END IONS

BEGIN IONS
PEPMASS=396.274
CHARGE=1
MSLEVEL=2
SOURCE_INSTRUMENT=LC-ESI-qTof
FILENAME=d12.mgf
SEQ=*..*
IONMODE=Positive
ORGANISM=GNPS-LIBRARY
NAME=Saliniketal A M+H
PI=Fenical-Jensen-Moore
DATACOLLECTOR=Max
SMILES=[H][C@]1(O[C@@]2(C)CC[C@H](O2)[C@H]1C)[C@H](C)[C@H](O)[C@H](C)[C@@H](O)[C@@H](C)\C=C\C=C(\C)C(N)=O
INCHI=InChI=1S/C22H37NO5/c1-12(8-7-9-13(2)21(23)26)18(24)15(4)19(25)16(5)20-14(3)17-10-11-22(6,27-17)28-20/h7-9,12,14-20,24-25H,10-11H2,1-6H3,(H2,23,26)/b8-7+,13-9-/t12-,14+,15+,16+,17-,18-,19+,20+,22-/m0/s1
INCHIAUX=GRVRRAOIXXYICO-XVBWCICRSA-N
PUBMED=N/A
SUBMITUSER=mwang87
LIBRARYQUALITY=1
SPECTRUMID=CCMSLIB00000001641
SCANS=1
51.023392	173.710907
52.02594	18.762449
53.039051	509.461609
54.041111	51.524471
55.018326	374.875
55.054649	5048.265137
55.123383	107.986397
55.140057	39.71524
55.320763	14.84884
56.022415	15.40537
56.055988	330.789703
57.034	698.787781
57.07045	512.12323
57.141621	17.33346
58.037975	41.25687
58.066059	134.102402
59.049431	220.288498
60.053101	20.85816
61.027744	121.422302
62.035351	11.72315
65.038864	691.848083
65.115593	17.694441
66.041969	61.917309
67.01683	16.476879
67.054443	7118.079102
67.130478	137.416702
67.15007	54.918709
68.056076	547.418396
69.033737	1666.094971
69.069946	2049.493896
69.148178	44.638981
70.035469	93.8843
70.068504	291.433594
71.049339	2132.50708
71.12767	43.257839
71.146484	13.56041
72.052071	85.70742
73.064857	28.07922
74.058952	15.30326
77.038712	3345.906982
77.119972	68.985397
77.140106	27.479349
78.041344	335.335785
79.054283	4232.756836
79.137718	74.734596
79.156914	31.632401
79.386284	12.41667
80.058174	418.498413
81.033798	124.968697
81.069817	3117.099121
81.154625	60.315948
81.175095	19.191469
82.068398	465.665497
82.150307	12.63415
83.012451	50.421539
83.049149	1556.069946
83.083244	252.695007
83.133995	38.132759
83.154999	14.54253
84.051636	93.211166
84.081238	164.473099
85.027687	70.608543
85.06469	1174.35498
85.151695	23.41013
86.065849	112.276398
87.042587	32.058708
89.043098	20.3612
91.054321	7092.356934
91.142708	138.363007
91.16523	49.49855
91.279739	26.115749
91.861023	11.82988
92.057182	695.831604
93.033463	37.720711
93.069748	5316.991211
93.159264	107.488297
93.181709	37.384369
93.431602	18.79195
93.758217	12.38005
94.040535	47.766781
94.072067	715.382324
95.004189	14.00315
95.049355	673.906982
95.085403	11661.969727
95.176239	270.040314
95.199219	95.189812
95.23027	38.65062
95.292633	34.687832
95.386482	28.04385
95.464233	28.88138
96.04435	1014.528015
96.08773	1165.626953
96.178993	26.36619
96.692436	12.00303
97.029518	233.342606
97.062279	677.866577
97.156097	15.55506
98.030617	19.10047
98.060791	347.234406
98.094093	88.833214
99.043945	2239.316895
99.07634	348.168915
99.137665	49.660431
100.04715	141.946198
100.077667	36.506432
101.058807	165.768906
102.056992	38.95546
103.054024	631.476685
104.059998	132.028793
105.069611	7412.862793
105.16571	144.532593
105.189613	50.40337
105.295715	21.8367
105.427452	21.87595
106.037636	15.1048
106.073166	847.707581
106.495148	13.36341
106.745293	12.00104
107.049248	343.524414
107.08522	6248.701172
107.181747	114.617401
107.206543	41.19492
107.334419	24.26515
108.056313	496.380402
108.086853	933.76062
108.183098	25.110371
109.02832	57.362061
109.064461	2279.356934
109.09903	1223.887939
109.160309	59.265339
109.197273	27.045231
110.06086	1270.008057
110.095894	522.708374
110.156891	35.3246
111.079132	628.486328
112.077827	187.798492
113.061546	99.213463
113.095581	853.708618
113.193924	17.243469
114.052444	13.71176
114.098572	100.698601
115.054184	787.575317
115.155594	15.25171
116.060677	326.524994
117.069107	1354.121948
117.171272	20.66272
117.197647	12.59292
118.073929	241.603104
118.128532	12.75023
119.048622	44.096371
119.085091	2553.906006
119.188225	51.739529
119.213715	18.729799
120.089317	396.227112
121.064316	1520.598999
121.100258	2074.729004
121.202698	40.585461
122.069801	291.217987
122.102684	331.643402
123.079849	3848.768066
123.182236	77.953957
123.209137	30.07445
123.512123	17.39517
124.082893	503.636688
124.183472	15.51038
125.095154	403.724396
126.05439	22.28347
126.09671	61.186779
127.053627	172.1633
128.061478	742.022278
128.166367	16.169901
129.068787	1095.19397
129.17804	23.073669
130.076813	1916.921021
130.181915	36.293049
131.083359	1000.810974
131.189529	19.69943
132.085693	218.479507
133.064453	1188.215942
133.09967	1707.375977
133.169846	40.36058
133.208145	35.542721
134.068649	202.770096
134.10376	289.493713
135.080063	1429.534058
135.115616	2303.570068
135.223495	41.742222
135.653854	11.8606
136.081238	335.285187
136.118896	331.365112
136.929932	22.50174
137.059372	129.693893
137.093628	346.330902
137.126556	169.353302
138.090652	630.748413
138.199448	14.41837
139.102478	127.679703
140.067581	15.51276
140.108337	39.077412
141.087875	755.166382
142.078339	502.015503
143.084732	863.214111
143.197693	14.40948
144.09082	358.3797
145.06572	213.2285
145.100357	3579.664062
145.211868	62.260109
145.239563	20.841299
145.73381	12.9308
146.070496	206.560501
146.103607	652.911377
147.079834	862.255371
147.114075	839.987976
147.195526	26.052179
147.227875	22.216961
148.087769	1488.737061
148.201492	26.312071
149.058899	162.387299
149.094864	906.352783
149.207565	19.291731
150.094681	317.550293
151.074997	1070.389038
151.190262	20.777399
152.078339	205.473801
153.070404	205.691193
153.125488	177.594696
154.075592	116.978401
154.131348	26.44589
155.084732	498.262085
156.091904	384.251007
157.063934	92.602814
157.099792	511.15799
158.071854	378.074188
158.103897	305.018707
159.080002	315.703094
159.114594	422.489105
160.086243	275.101898
160.114609	149.576294
161.095276	796.89447
161.12735	261.344208
161.215103	16.30335
162.100235	176.823196
162.124496	105.071899
163.110962	10544.629883
163.230118	186.791
163.261673	71.558418
163.366714	35.114891
163.560135	31.475651
164.11412	1746.115967
164.233765	37.584999
164.668015	12.74497
165.068771	122.413597
165.12207	208.499496
166.076187	61.60844
166.125137	59.95826
167.086441	151.295807
168.096985	146.701294
169.100754	237.389801
170.107635	308.247803
171.081009	105.003502
171.114578	324.107086
172.0867	182.856506
172.118225	170.065399
173.095108	768.852478
173.12944	386.454498
173.21698	18.31057
174.101852	250.491104
175.110153	420.263
175.145248	325.962585
175.231979	11.8428
176.112137	145.424103
176.146393	77.29052
177.092224	81.852966
177.121826	51.625252
177.154907	34.24081
178.084961	30.927271
178.119186	41.817921
179.103073	190.237503
180.136887	189.858093
181.121262	529.248718
182.116074	137.101395
183.078079	89.92897
183.115891	142.371597
184.083084	22.393129
184.122421	51.928478
185.093323	97.317513
185.131836	276.01889
186.100906	74.495537
186.134247	82.533157
187.110519	147.232101
187.144821	205.967697
188.116806	89.075653
188.147995	55.66214
189.126358	199.921204
190.124527	174.971603
191.105957	1787.858032
191.234512	24.028919
192.1091	343.127686
192.95668	14.10208
193.102829	94.916512
193.154922	54.002399
194.10849	41.335949
194.160843	13.88124
195.114212	133.298798
196.121658	82.250053
197.130096	141.763901
198.129532	62.872478
199.129593	212.226395
200.127975	57.281368
201.125687	105.573402
202.093597	28.94533
202.138092	25.29871
203.141495	381.761505
204.14563	85.966957
205.150345	60.933231
206.108063	28.09697
206.156784	18.54851
207.132874	103.702599
208.132614	1058.348999
208.268829	18.764481
209.134125	303.514893
210.13385	90.67952
211.108795	56.44603
211.149261	89.859512
212.112747	30.20249
212.145889	30.81813
213.125732	115.2798
213.153137	56.810421
214.130402	23.255301
214.163208	14.8252
215.140533	187.877808
216.145386	37.433762
217.120499	42.151249
217.154358	26.37529
219.119293	55.705879
220.126114	20.971121
220.165909	44.903172
221.152023	136.434799
222.105667	20.02219
222.151657	38.53754
223.109131	51.10899
223.150238	50.47694
224.15506	43.43214
225.158829	80.458931
226.142563	57.1255
227.158478	49.8894
228.14592	17.73381
229.15741	50.17403
230.159378	22.38693
231.136688	94.196358
231.169449	73.344437
232.151016	31.042521
233.148712	39.69006
234.14119	37.000561
235.146851	23.791969
236.156097	15.51107
237.128922	55.15918
238.127731	33.739639
238.163925	16.18919
239.17717	114.434303
240.17865	32.68124
241.155777	47.147369
243.172272	81.346977
244.175018	12.9122
245.187897	33.346401
246.192261	13.23142
247.16832	44.2896
248.165375	43.64011
249.164001	62.648991
250.166718	24.63892
251.142181	22.441931
251.17395	16.08559
252.14949	28.67535
253.155121	19.157391
255.172028	31.55055
256.17215	20.875151
257.189545	22.362
259.168762	27.90955
260.195801	29.349291
261.18396	34.824799
265.158905	15.00952
265.19104	24.015421
266.167297	32.114052
267.173859	147.883301
268.174377	40.538368
279.206818	29.916849
283.202545	33.05632
284.20639	13.00751
285.184875	65.130928
286.188477	17.95224
292.181519	15.62476
297.221069	20.41675
301.217773	18.38327
303.190857	16.49341
307.205444	45.48315
308.21579	14.53677
315.22998	18.771099
325.213776	82.843147
326.218384	27.44986
342.242096	24.663639
343.229675	130.966507
344.230164	47.527088
360.253418	56.012779
361.244934	43.387718
378.261444	42.781342
379.26297	16.425791
399.305634	19.768351
END IONS

BEGIN IONS
PEPMASS=739.21
CHARGE=0
MSLEVEL=2
SOURCE_INSTRUMENT=LC-ESI-Ion Trap
FILENAME=20121205_Jenia_Ger_Antanapeptin_B_MH739_qb.1.1..mgf
SEQ=*..*
IONMODE=Positive
ORGANISM=GNPS-LIBRARY
NAME=Antanapeptin B M+H
PI=Gerwick
DATACOLLECTOR=Jenia
SMILES=CCC(C)[C@@H]1N(C)C(=O)[C@@H]2CCCN2C(=O)[C@@H](OC(=O)[C@H](CC2=CC=CC=C2)N(C)C(=O)[C@@H](NC(=O)C(C)C(CCCC=C)OC1=O)C(C)C)C(C)C
INCHI=InChI=1S/C41H62N4O8/c1-11-13-15-22-32-28(8)36(46)42-33(25(3)4)38(48)43(9)31(24-29-19-16-14-17-20-29)40(50)53-35(26(5)6)39(49)45-23-18-21-30(45)37(47)44(10)34(27(7)12-2)41(51)52-32/h11,14,16-17,19-20,25-28,30-35H,1,12-13,15,18,21-24H2,2-10H3,(H,42,46)/t27?,28?,30-,31-,32?,33-,34-,35-/m0/s1
INCHIAUX=LZACOZXZESEOFK-CVZHIFNESA-N
PUBMED=N/A
SUBMITUSER=mwang87
LIBRARYQUALITY=1
SPECTRUMID=CCMSLIB00000001642
SCANS=1
207.628235	2209.0
235.805573	10498.0
242.942444	2058.0
258.962219	16709.0
261.8638	41249.0
263.17395	7285.0
286.532593	837.0
287.033508	2439.0
296.613159	1806.0
306.697693	17758.0
310.650513	1340.0
322.903809	1861.0
324.320557	8038.0
324.953949	278096.0
325.990356	13584.0
327.642395	1007.0
330.954132	322337.0
331.927277	4190.0
332.907349	2590.0
342.821411	41186.0
343.777802	2361.0
352.876709	13557.0
358.166748	16174.0
358.887268	631968.0
359.828857	21803.0
360.7323	2167.0
362.069275	3788.0
362.97467	3248.0
366.932678	861.0
369.226501	9520.0
372.87323	9279.0
376.967957	300732.0
378.029266	22821.0
378.990021	12492.0
380.984283	103355.0
381.302307	2156.0
386.2771	1977.0
386.927277	16561.0
390.028564	18494.0
391.057068	2972.0
395.161682	1845.0
396.175659	906.0
397.019836	41917.0
397.822998	4094.0
398.901001	12878.0
415.106506	18992.0
422.027954	3042.0
423.412506	9302.0
433.115723	777.0
449.81311	702.0
451.021454	30106.0
458.024445	22166.0
471.418457	1910.0
476.024689	5687.0
478.08255	41276.0
479.123993	3861.0
480.31012	5852.0
483.957153	8132.0
485.283691	12376.0
486.027832	1800671.0
487.036346	89281.0
487.911774	4207.0
489.897583	8834.0
495.055298	2703.0
497.007538	16241.0
502.277222	10081.0
503.208984	24716.0
504.017517	5234278.0
505.025452	326928.0
505.979462	36258.0
506.609497	1.0
513.079834	8278.0
514.001526	5484.0
515.026001	7516.0
540.003418	598.0
542.086243	20779.0
548.994507	3661.0
549.956177	67339.0
550.56665	1.0
558.167908	29379.0
559.035767	51815.0
560.066467	823446.0
560.833313	2.0
568.490845	2046.0
575.943054	3365.0
576.902771	6726.0
577.452637	387.0
578.000122	225083.0
578.690918	2.0
582.986084	734.0
584.148926	39858.0
584.979858	1455.0
586.717041	4738.0
594.086609	28002.0
598.01123	2015.0
610.446899	15000.0
611.193115	78158.0
612.071045	489272.0
612.796448	4.0
622.276245	969.0
624.240234	2342.0
625.804565	1886.0
637.298828	2432.0
639.076172	21181.0
641.168701	10773.0
682.959473	6650.0
692.551514	2195.0
703.275391	2079.0
709.474976	3269.0
710.166382	87183.0
711.158264	1345986.0
712.031067	7.0
720.061279	13277.0
721.118774	252894.0
722.016602	2.0
738.206055	3429.0
739.122559	9122.0
END IONS

BEGIN IONS
PEPMASS=418.256
CHARGE=1
MSLEVEL=2
SOURCE_INSTRUMENT=LC-ESI-qTof
FILENAME=d12_1.mgf
SEQ=*..*
IONMODE=Positive
ORGANISM=GNPS-LIBRARY
NAME=Saliniketal A M+Na
PI=Fenical-Jensen-Moore
DATACOLLECTOR=Max
SMILES=[H][C@]1(O[C@@]2(C)CC[C@H](O2)[C@H]1C)[C@H](C)[C@H](O)[C@H](C)[C@@H](O)[C@@H](C)\C=C\C=C(\C)C(N)=O
INCHI=InChI=1S/C22H37NO5/c1-12(8-7-9-13(2)21(23)26)18(24)15(4)19(25)16(5)20-14(3)17-10-11-22(6,27-17)28-20/h7-9,12,14-20,24-25H,10-11H2,1-6H3,(H2,23,26)/b8-7+,13-9-/t12-,14+,15+,16+,17-,18-,19+,20+,22-/m0/s1
INCHIAUX=GRVRRAOIXXYICO-XVBWCICRSA-N
PUBMED=N/A
SUBMITUSER=mwang87
LIBRARYQUALITY=1
SPECTRUMID=CCMSLIB00000001643
SCANS=1
55.054455	10.16356
80.02137	12.78858
110.068092	26.553011
111.040459	57.20438
112.048843	10.9062
118.919128	24.158461
136.930115	43.183811
140.080124	14.86788
161.080612	22.763359
162.087524	179.725403
163.079285	36.794338
190.08255	312.978088
191.089127	52.899529
192.102097	36.4519
192.958206	11.31529
221.113846	449.826691
222.116821	83.303864
223.126099	40.53022
248.124619	116.0662
249.125778	33.651661
279.156342	627.447021
280.158813	156.485992
281.166229	39.289162
306.163788	56.714199
307.170624	12.13728
400.239868	22.37562
418.256348	8018.400879
418.443695	109.006302
418.495178	47.31847
419.259613	2975.569092
419.447174	48.506748
419.501556	32.524429
420.262177	528.062378
421.263245	84.128761
END IONS

BEGIN IONS
PEPMASS=785.23
CHARGE=0
MSLEVEL=2
SOURCE_INSTRUMENT=LC-ESI-qTof
FILENAME=20121205_Jenia_Ger_Dolastatin_10_MH785_qb.1.1..mgf
SEQ=*..*
IONMODE=Positive
ORGANISM=GNPS-LIBRARY
NAME=Dolastatin_10 M+H
PI=Gerwick
DATACOLLECTOR=Jenia
SMILES=CC[C@H](C)[C@@H]([C@@H](CC(=O)N1CCC[C@H]1[C@@H]([C@@H](C)C(=O)N[C@@H](CC2=CC=CC=C2)C3=NC=CS3)OC)OC)N(C)C(=O)[C@H](C(C)C)NC(=O)[C@H](C(C)C)N(C)C
INCHI=InChI=1S/C42H68N6O6S/c1-13-28(6)37(47(10)42(52)35(26(2)3)45-40(51)36(27(4)5)46(8)9)33(53-11)25-34(49)48-22-17-20-32(48)38(54-12)29(7)39(50)44-31(41-43-21-23-55-41)24-30-18-15-14-16-19-30/h14-16,18-19,21,23,26-29,31-33,35-38H,13,17,20,22,24-25H2,1-12H3,(H,44,50)(H,45,51)/t28-,29+,31-,32-,33+,35-,36-,37-,38+/m0/s1
INCHIAUX=N/A
PUBMED=N/A
SUBMITUSER=mwang87
LIBRARYQUALITY=1
SPECTRUMID=CCMSLIB00000001644
SCANS=1
226.791016	25646.0
291.709839	9486.0
305.235474	6458.0
317.943909	2182.0
324.021973	8753.0
341.863281	11795.0
356.033875	323784.0
356.638824	1.0
359.971985	5800.0
369.956787	6114.0
372.018677	37939.0
373.141541	38302.0
373.870544	4667173.0
374.473511	6896.0
387.629333	3927.0
395.62915	1329.0
412.030823	7675.0
442.20813	8366.0
446.363037	51992.0
463.656494	35871.0
477.333801	5416.0
495.303955	25585.0
496.055634	547537.0
496.756378	4.0
508.933533	13464.0
526.991455	197549.0
528.08313	144040.0
528.757141	2.0
541.197388	211482.0
542.85321	3584.0
543.994629	36455.0
545.009521	44270.0
548.770142	10511.0
555.054688	5963.0
556.603394	7452.0
557.324463	5929.0
558.225403	201663.0
559.014038	30946192.0
559.712341	8188.0
572.764648	11962.0
625.872925	13959.0
626.417969	9195.0
657.482666	4529.0
658.192383	630022.0
658.987671	14.0
682.070557	4562.0
707.24707	4835.0
708.106445	1781.0
712.14801	76732.0
712.65918	21370.0
721.168762	151765.0
722.054688	5.0
734.990295	11675.0
739.341919	922.0
740.230164	77443.0
741.284302	11964.0
750.934326	5286.0
751.56897	6243.0
752.443726	272397.0
753.227905	37462672.0
753.934265	5527.0
757.417603	30775.0
767.139465	38463.0
767.973022	4982.0
785.340088	2432.0
END IONS

BEGIN IONS
PEPMASS=445.113
CHARGE=1
MSLEVEL=2
SOURCE_INSTRUMENT=LC-ESI-qTof
FILENAME=e1.mgf
SEQ=*..*
IONMODE=Positive
ORGANISM=GNPS-LIBRARY
NAME=Enterocin M+H
PI=Fenical-Jensen-Moore
DATACOLLECTOR=Max
SMILES=[H][C@]12C[C@@]3(O)[C@@H](C4=CC(OC)=CC(=O)O4)[C@](O)([C@H](C(=O)C4=CC=CC=C4)[C@@]3(O)C(=O)O1)[C@@H]2O
INCHI=InChI=1S/C22H20O10/c1-30-11-7-12(31-14(23)8-11)16-20(27)9-13-18(25)21(16,28)17(22(20,29)19(26)32-13)15(24)10-5-3-2-4-6-10/h2-8,13,16-18,25,27-29H,9H2,1H3/t13-,16-,17+,18-,20-,21+,22-/m1/s1
INCHIAUX=CTBBEXWJRAPJIZ-VHPBLNRZSA-N
PUBMED=N/A
SUBMITUSER=mwang87
LIBRARYQUALITY=1
SPECTRUMID=CCMSLIB00000001645
SCANS=1
51.023438	952.8703
51.09034	24.669291
52.027233	26.87347
53.001881	43.414959
53.03867	457.406403
55.017998	598.021301
55.050674	40.053028
56.024395	31.62079
57.033222	122.500198
59.013309	1025.952026
60.016636	52.697399
63.021935	31.76001
65.039124	142.761505
66.042992	23.893351
67.018135	270.810486
67.053513	79.850403
68.024361	103.093201
68.997368	2301.187012
69.033783	2762.389893
69.111031	69.253113
70.000084	126.824203
70.036789	167.166107
71.011688	32.90649
71.047592	53.762001
73.064163	56.467709
77.038544	15313.599609
77.119995	328.96991
77.29631	25.38727
78.041969	995.99762
79.01712	108.506203
79.053215	232.202194
80.025528	45.534729
81.03273	177.6707
82.038185	51.64497
83.011261	144.948196
83.049194	110.950699
85.02845	172.907806
89.038139	71.604248
90.045578	91.105392
91.054146	364.419586
92.057083	46.610371
93.033203	299.985199
94.039207	38.67178
95.01329	296.339905
95.048065	346.382202
96.017616	72.880417
97.028091	154.063705
97.060883	61.977428
98.032188	67.906403
99.04335	439.678894
100.046936	41.91724
101.039688	36.34074
102.04583	79.296478
103.053574	343.501404
104.057785	50.449631
105.033104	23510.169922
105.439804	30.152719
105.542282	24.04833
106.03653	2295.715088
106.132507	41.80368
106.157097	24.341249
107.012863	106.314102
107.044518	205.104401
108.020416	287.325104
108.053825	70.609047
109.027718	274.805206
109.061066	53.474861
110.032173	50.5308
111.006042	41.15041
111.04332	509.958801
112.04924	107.648499
113.056107	27.920429
115.054298	258.81311
116.05825	103.136497
117.06916	107.9729
118.04055	139.560898
119.014404	54.856998
119.047684	169.927795
120.050697	42.360859
121.025398	114.751198
121.063858	176.001602
122.037689	31.16782
122.065445	48.963001
123.005432	35.59137
123.043198	452.690002
124.012115	54.522011
124.047211	66.959343
125.022545	4011.010986
125.126663	72.763847
125.153023	26.70525
126.026016	518.213989
127.051064	175.818695
128.059784	142.046402
129.033936	64.662567
129.067139	174.417694
130.039398	31.66748
131.048752	294.650208
132.054535	74.853279
133.027573	60.208328
133.064087	290.251801
134.035324	73.109497
134.06517	39.713669
135.006363	77.038353
135.044479	253.945297
135.074692	70.30674
136.010269	24.55703
136.051102	57.90535
137.023483	344.905396
137.057114	260.84671
138.028519	66.016724
139.038513	645.287476
140.044434	220.154297
141.056458	709.452698
142.056931	89.748779
143.047714	84.193878
143.079758	27.39616
144.054337	96.382858
145.027588	130.241501
145.063095	143.437195
146.035522	166.188904
147.006195	28.671049
147.042694	958.75
148.045914	117.952698
149.02243	103.779701
149.059006	179.476395
150.05925	53.67062
151.0383	414.984192
151.070526	223.174301
152.006882	38.93586
152.060181	174.199799
153.018311	188.265701
153.064835	317.477203
154.022171	53.58371
154.063705	55.49963
155.048264	122.371498
155.081161	82.751541
157.029083	62.488689
157.063568	164.509796
158.035965	24.00444
158.069244	37.916672
159.042297	197.451096
160.048859	81.188667
161.058655	629.200684
162.027161	69.17334
162.060486	101.726799
163.036133	137.524704
163.073395	113.271698
164.058319	61.386089
165.013382	31.24667
165.064377	486.433014
166.025528	28.85701
166.068619	102.8983
167.032898	2433.694092
167.154129	46.987419
168.036804	348.400085
169.057999	118.283401
170.036957	37.86031
171.042084	151.710999
172.048431	38.140141
173.021164	89.271507
173.058563	215.252396
174.029633	58.736191
174.060654	37.037109
175.039032	215.971695
176.054413	85.953171
177.053253	550.285217
178.067307	183.100006
179.031052	150.396301
179.070526	257.289612
180.054581	37.044441
181.062393	187.186096
182.062866	74.90313
183.076462	99.137428
184.053284	24.01791
185.058563	161.317307
186.028763	33.359421
186.06044	71.07164
187.038605	60.027809
187.074951	54.636162
188.042496	40.427738
189.055267	491.600494
190.022491	42.666698
190.061188	153.679199
191.074753	165.454102
192.082733	66.930443
193.050812	336.28241
194.058472	71.809998
195.063583	245.158798
196.069839	114.951302
197.059799	250.339996
199.040543	110.723297
200.050034	70.083366
201.014511	24.933201
201.053696	144.020294
202.023758	86.178757
202.075668	238.417999
203.035553	181.899994
203.072876	211.219498
204.077698	74.168694
205.050186	372.917786
206.063446	116.2771
207.066299	350.531494
208.073303	78.862007
209.054779	222.881195
210.062286	79.127457
211.072327	72.792473
213.055634	136.581894
214.059235	46.184261
215.073944	119.728798
216.081146	44.070148
217.050369	164.037506
218.067688	103.461502
219.054657	87.725143
220.080399	45.249321
221.05687	144.553207
221.088165	78.764549
222.054291	107.495697
223.060669	148.673996
224.069122	107.830803
225.050995	85.521812
226.059174	117.6371
227.061752	116.370796
229.012634	159.300995
229.050995	87.57122
230.014633	58.350658
230.069885	47.202179
231.071762	212.078796
232.074982	80.094368
233.051224	151.224304
234.06427	76.774544
235.058182	479.901398
236.062897	109.108299
237.056168	153.514206
238.058212	49.888939
238.088516	29.276819
239.069733	120.888199
241.050858	58.53513
242.052673	28.434999
243.065414	94.507973
244.068405	56.045502
245.047363	92.944473
246.065887	52.608051
247.072128	95.657516
248.080307	60.501869
249.080017	99.440277
250.081528	29.265869
251.054886	413.658813
252.060455	203.868607
253.070953	162.308105
254.070007	39.51754
257.057068	42.87405
258.063354	34.391571
259.061218	206.621704
260.073853	92.010406
261.049713	159.4561
262.042969	48.307041
263.059387	58.19836
263.095917	26.07412
264.070648	51.706779
265.050934	84.797737
267.073944	61.883869
273.057648	42.58667
275.066864	71.108147
276.079437	57.193249
277.081818	170.685699
278.085144	62.952209
279.083344	45.521049
281.075012	41.883678
286.060944	28.694441
287.061523	97.424454
288.058228	25.16679
289.061859	43.95134
291.098511	75.927513
292.101532	29.33535
293.080597	77.159599
295.090759	93.17704
296.102112	32.76276
297.07132	42.663391
303.061462	52.613331
304.065918	44.243198
305.075745	106.8526
306.075653	43.12344
307.092834	70.093353
308.100311	38.703369
309.104767	35.357571
315.069366	25.217079
319.095459	111.903801
320.096588	38.467079
321.075256	74.681671
322.073273	30.01314
323.082947	51.88271
329.069641	24.04134
332.065247	25.56954
335.090759	137.566101
336.092194	81.059937
337.099335	69.542641
338.106781	29.66186
345.071136	36.373341
347.088135	80.181183
348.093872	30.97834
349.06958	23.932819
351.068573	26.686359
353.103302	82.839996
354.102417	42.258781
363.084656	176.511002
364.087524	60.796139
365.095764	91.391296
366.106354	32.211269
381.097137	183.334702
382.099396	76.429848
383.0979	49.601921
391.080292	87.600479
392.080811	47.138611
399.106903	54.598431
409.092163	94.497864
410.090332	39.17495
427.101868	177.286896
428.102325	63.959641
429.105469	28.2631
445.111084	265.218689
446.119537	99.498428
447.114624	42.833328
END IONS

BEGIN IONS
PEPMASS=969.29
CHARGE=0
MSLEVEL=2
SOURCE_INSTRUMENT=LC-ESI-qTof
FILENAME=20121205_Jenia_Ger_Dolastatin_12_MH969_qb.1.1..mgf
SEQ=*..*
IONMODE=Positive
ORGANISM=GNPS-LIBRARY
NAME=Dolastatin_12 M+H
PI=Gerwick
DATACOLLECTOR=Jenia
SMILES=CCC1C(C(=O)OC(C(=O)NCC(=O)N([C@H](C(=O)NCC(=O)N([C@H](C(=O)N([C@H](C(=O)N[C@H](C(=O)C(C(=O)N([C@H](C(=O)N1)C)C)(C)C)C)CC2=CC=CC=C2)C)C(C)C)C)CC(C)C)C)C(C)CC)C
INCHI=InChI=1S/C50H80N8O11/c1-17-30(7)41-46(65)52-26-38(59)56(14)36(24-28(3)4)44(63)51-27-39(60)58(16)40(29(5)6)47(66)57(15)37(25-34-22-20-19-21-23-34)45(64)53-32(9)42(61)50(11,12)49(68)55(13)33(10)43(62)54-35(18-2)31(8)48(67)69-41/h19-23,28-33,35-37,40-41H,17-18,24-27H2,1-16H3,(H,51,63)(H,52,65)(H,53,64)(H,54,62)/t30?,31?,32-,33-,35?,36-,37-,40-,41?/m0/s1
INCHIAUX=N/A
PUBMED=N/A
SUBMITUSER=mwang87
LIBRARYQUALITY=1
SPECTRUMID=CCMSLIB00000001646
SCANS=1
270.915649	836.0
274.741852	13893.0
277.109497	3769.0
280.931396	197846.0
282.137939	6095.0
284.135376	2348.0
284.985168	412.0
286.990479	1949.0
292.16449	6370.0
295.215942	821.0
295.936188	1253.0
297.810638	43276.0
299.02536	15474.0
302.030121	5271.0
303.02124	23618.0
313.001312	11017.0
314.98465	16107.0
317.163574	8666.0
320.056519	17614.0
322.89856	690.0
323.841187	9335.0
331.79895	201.0
332.390442	4787.0
334.230286	1403.0
336.8526	321.0
338.072876	63190.0
338.957916	13063.0
339.929382	8046.0
341.880463	11841.0
344.847168	2056.0
345.988647	24542.0
351.594421	1479.0
352.321045	1704.0
353.245544	6864.0
354.126831	416.0
355.949432	6397.0
358.085083	6110.0
359.949738	21484.0
363.778687	3134.0
367.663361	3031.0
368.192993	2603.0
368.750488	1589.0
369.930573	95221.0
376.978699	2427.0
378.003265	5513.0
379.793152	3967.0
381.470032	2434.0
382.90976	18506.0
383.998169	638.0
385.782471	1334.0
387.873627	150265.0
388.793671	2900.0
389.795166	11721.0
393.031738	1207.0
394.300171	1248.0
394.940948	8833.0
398.186829	832.0
399.9646	1257.0
401.066345	56816.0
402.779724	1371.0
410.382751	5180.0
411.932892	18209.0
412.662231	351.0
413.26416	3146.0
415.982422	14073.0
416.889893	313.0
418.012817	1638.0
421.918945	137829.0
422.484619	2.0
423.295898	1467.0
426.578735	2601.0
427.234589	5646.0
428.336182	12073.0
430.126282	4635.0
432.84082	2587.0
434.02774	18536.0
438.104736	3068.0
438.82251	3083.0
440.045929	77491.0
446.150757	4006.0
451.043213	116321.0
452.069946	10652.0
453.256226	1574.0
455.149536	4024.0
456.081635	3789.0
456.772827	3213.0
459.035736	105559.0
460.040802	3642.0
460.875305	18063.0
464.989563	19954.0
466.830688	3516.0
468.958862	194932.0
469.629425	2.0
470.28537	1830.0
473.099243	282.0
474.165314	18654.0
477.172943	7959.0
478.152832	6695.0
479.029053	135440.0
479.720734	4.0
480.962891	3692.0
482.698242	1795.0
486.719666	1076.0
490.08313	6458.0
491.114746	8993.0
494.912415	5453.0
496.35022	4163.0
497.016571	624486.0
497.981049	23129.0
499.015137	1197.0
499.956665	902.0
500.983124	271619.0
501.707764	6.0
502.29126	4752.0
505.011475	10517.0
506.952118	9746.0
509.835144	545.0
511.147827	17873.0
511.851196	6456.0
512.805664	2081.0
515.217163	12044.0
516.097656	2777.0
517.146179	17692.0
519.054443	112296.0
519.661377	5.0
520.825562	3490.0
523.117676	5606.0
525.030334	10000.0
529.994934	48692.0
531.128906	33848.0
536.21698	123584.0
536.76062	2185.0
537.291382	5352.0
538.239746	3563.0
539.301758	2169.0
540.11853	81702.0
544.056396	1743.0
546.835815	3602.0
548.036133	675.0
549.288574	1429.0
553.993713	163955.0
554.927917	7353.0
556.091064	456.0
558.15802	6628.0
559.074097	4289.0
561.830383	6658.0
562.464355	2444.0
564.013	60431.0
564.764832	2357.0
565.457275	857.0
568.472961	5991.0
572.14209	1181.0
573.089355	15582.0
573.927246	749.0
574.523438	3769.0
575.060669	1204.0
576.124512	6604.0
577.113892	6516.0
580.908936	8803.0
582.104431	53605.0
582.766357	1251.0
583.395569	2246.0
585.282837	17236.0
590.192627	1928.0
591.355164	27404.0
592.05072	1944298.0
593.05188	27598.0
594.036743	7299.0
607.616333	5158.0
608.435547	2171.0
610.003174	54535.0
610.78418	3266.0
611.307373	5872.0
612.095093	25728.0
613.154785	5319.0
615.02179	9888.0
616.119751	5888.0
620.320679	2595.0
621.624939	1368.0
623.098572	4294.0
626.08905	3361.0
627.306885	6207.0
628.239014	1402.0
628.816406	1751.0
630.023804	64654.0
631.46759	13897.0
631.99939	823.0
636.300293	1492.0
637.072937	4749.0
637.638916	458.0
638.195007	9006.0
639.377747	14360.0
640.077087	56454.0
641.189697	9534.0
642.870972	3872.0
644.169312	12873.0
647.809875	8812.0
648.584229	6615.0
649.256226	550619.0
650.174744	16816.0
653.743958	9418.0
656.680847	11815.0
657.465088	5292.0
658.120483	19004.0
659.299805	3857.0
664.660034	2930.0
665.969482	2241.0
666.524048	13066.0
667.175598	878618.0
668.122742	39098.0
671.219727	761.0
672.085571	328095.0
672.734192	13.0
673.269531	7410.0
675.376831	7064.0
677.360535	22975.0
678.075378	22801.0
681.374573	22804.0
682.836182	4080.0
683.713867	3017.0
684.582886	1763.0
685.088013	105980.0
686.453369	5158.0
687.052368	24443.0
689.092651	23325.0
690.361816	3522.0
693.218018	1263.0
694.35437	9966.0
695.19458	92591.0
695.945801	9395.0
697.332092	2557.0
699.128784	3502.0
701.143921	33972.0
703.084717	250297.0
703.836121	5.0
706.17749	7785.0
706.987793	712.0
708.210938	6330.0
709.263733	2937.0
712.934082	810.0
715.089661	26606.0
723.767883	8045.0
725.212891	45417.0
726.194214	12089.0
729.143616	34593.0
734.883057	2318.0
739.109985	41918.0
740.183167	2454.0
742.427246	324.0
743.183167	118481.0
750.374756	1394.0
751.514404	381.0
752.538391	8434.0
753.122131	521245.0
753.949646	5747.0
755.295593	18876.0
760.962402	957.0
767.026062	20959.0
770.08374	4013.0
770.962402	26926.0
771.849854	1528.0
779.103882	4221.0
781.078857	22496.0
782.978271	2288.0
784.298279	8134.0
785.135437	11201.0
785.780884	1296.0
790.226379	9905.0
791.329468	3610.0
792.431091	3619.0
796.26123	13434.0
796.769043	2591.0
798.253784	63573.0
799.127319	303630.0
799.759399	1.0
800.349976	16659.0
802.268066	5387.0
808.350342	18299.0
809.644165	2705.0
810.24408	130749.0
811.084717	4440.0
812.16217	5483.0
813.102661	650.0
814.090271	117222.0
816.273071	14451.0
820.184937	538.0
822.190247	25101.0
823.171387	5573.0
824.322693	13973.0
826.247314	64656.0
827.00354	9118.0
828.132263	351946.0
828.716125	3730.0
829.553711	1826.0
838.273376	516408.0
839.31189	79570.0
840.420654	4780.0
842.168823	1503901.0
843.170471	10043.0
850.162476	18123.0
853.538208	3080.0
854.486816	8491.0
855.436951	9800.0
856.176208	652844.0
857.308777	60827.0
858.641113	1391.0
865.961548	12409.0
867.030701	2185.0
868.056091	11378.0
880.629272	5002.0
884.276733	22953.0
889.430542	1149.0
894.110352	148955.0
894.492432	243.0
898.387817	1928.0
906.050903	221.0
907.342468	48056.0
908.01123	841.0
912.158203	55255.0
912.387756	756.0
913.302002	3075.0
920.025635	2668.0
920.549194	4047.0
925.240112	1173968.0
926.255066	18645.0
926.994385	3.0
933.191895	2367.0
933.814575	13453.0
939.174927	3873.0
940.496399	22755.0
941.34375	101617.0
942.33551	5766.0
950.702209	92517.0
951.377686	9766727.0
952.311462	200249.0
952.815186	4311.0
953.580688	1306.0
967.533752	21673.0
968.278137	106386.0
968.80249	983.0
969.319092	117679.0
969.821533	3540.0
970.355042	994.0
END IONS

