BEGIN IONS
TITLE=msLevel NA; retentionTime ; scanNum 
CHARGE=
SMILES=C([C@H]([C@H]([C@@H]([C@@H](CO)O)O)O)O)O
IONMODE=negative
ADDUCT=[M-H]-
INSTRUMENT_TYPE=Q-Tof
PRECURSOR_MZ=181.07123
SOURCE=Riken-respect-PT211960.txt
FORMULA=C6H14O6
COMPOUND_NAME=D-(-)-Mannitol
59.0155 159
71.015 563
73.0307 88
85.0297 108
89.0247 262
101.0247 470
113.0245 59
119.0359 78
163.0605 124
181.0712 999
END IONS

BEGIN IONS
TITLE=msLevel NA; retentionTime ; scanNum 
CHARGE=
SMILES=COC1=CC=CC2=C1C(=CN2)C/C(=N/OS(=O)(=O)O)/S[C@H]3[C@@H]([C@H]([C@@H]([C@H](O3)CO)O)O)O
IONMODE=negative
COLLISION_ENERGY=15->55V
ADDUCT=[M-H]-
INSTRUMENT_TYPE=Q-TOF
PRECURSOR_MZ=477.0612
SOURCE=Riken-respect-PM018023.txt
FORMULA=C17H21N2O10S2
COMPOUND_NAME=4-Methoxyindol-3-ylmethyl glucosinolate
INSTRUMENT=QTOF Premier
74.9923 11
79.9592 4
95.9522 19
96.9603 39
477.0612 100
END IONS

BEGIN IONS
TITLE=msLevel NA; retentionTime ; scanNum 
CHARGE=
SMILES=C[N+]1=CC=CC=C1/C=N/O
IONMODE=positive
ADDUCT=[M+H]+
INSTRUMENT_TYPE=Q-Tof
PRECURSOR_MZ=137.07146
SOURCE=Riken-respect-PT103310.txt
FORMULA=C7H9N2O
COMPOUND_NAME=Pyridine-2-aldoxime methochloride
92.0523 145
93.0595 855
119.0627 999
120.0714 283
137.0715 921
END IONS

BEGIN IONS
TITLE=msLevel NA; retentionTime ; scanNum 
CHARGE=
SMILES=COC1=CC(=CC(=C1)/C=C/C(=O)O)OC
IONMODE=positive
ADDUCT=[M+H]+
INSTRUMENT_TYPE=Q-Tof
PRECURSOR_MZ=209.08136
SOURCE=Riken-respect-PT107610.txt
FORMULA=C11H12O4
COMPOUND_NAME=3,5-Dimethoxycinnamic acid (predominantly trans)
90.5288 209
99.5369 999
100.5356 512
111.0466 816
112.0438 284
117.0258 162
135.0419 126
135.9047 161
138.0024 136
191.0589 384
193.0328 680
209.0814 377
END IONS

BEGIN IONS
TITLE=msLevel NA; retentionTime ; scanNum 
CHARGE=
SMILES=COC1=CC(=CC(=C1O)OC)/C=C/C(=O)OC(CC(=O)O)C(=O)O
IONMODE=negative
ADDUCT=[M-H]-
INSTRUMENT_TYPE=Q-Tof
PRECURSOR_MZ=339.07161
SOURCE=Riken-respect-PT211790.txt
FORMULA=C15H16O9
COMPOUND_NAME=Sinapoyl malate
71.0153 161
93.0348 46
115.0032 122
121.0289 292
133.0134 143
147.0444 47
149.0235 690
164.0467 503
179.0704 45
193.0131 27
208.037 49
223.0596 999
224.065 27
339.0716 27
END IONS

BEGIN IONS
TITLE=msLevel NA; retentionTime ; scanNum 
CHARGE=
SMILES=CC(C)/C=C/CCCCC(=O)NCC1=CC(=C(C=C1)O)OC
IONMODE=negative
ADDUCT=[M-H]-
INSTRUMENT_TYPE=Q-Tof
PRECURSOR_MZ=304.19128
SOURCE=Riken-respect-PT204410.txt
FORMULA=C18H27NO3
COMPOUND_NAME=Capsaicin
168.1418 999
304.1913 134
END IONS

BEGIN IONS
TITLE=msLevel NA; retentionTime ; scanNum 
CHARGE=
SMILES=COC1=C(C=CC(=C1)/C=C/C(=O)O)O
IONMODE=negative
ADDUCT=[M-H]-
INSTRUMENT_TYPE=Q-Tof
PRECURSOR_MZ=193.05011
SOURCE=Riken-respect-PT200110.txt
FORMULA=C10H10O4
COMPOUND_NAME=4-Hydroxy-3-methoxycinnamic acid
134.0369 999
149.061 120
178.0264 268
193.0501 337
END IONS

BEGIN IONS
TITLE=msLevel NA; retentionTime ; scanNum 
CHARGE=
SMILES=C1=CC(=O)OC2=CC(=C(C=C21)O)O
IONMODE=negative
ADDUCT=[M-H]-
INSTRUMENT_TYPE=Q-Tof
PRECURSOR_MZ=177.01881
SOURCE=Riken-respect-PT212500.txt
FORMULA=C9H6O4
COMPOUND_NAME=6,7-Dihydroxycoumarin
77.0411 35
79.0206 12
81.0363 33
89.0412 125
93.0361 41
105.0357 198
107.0145 30
121.0304 32
133.0306 308
149.0251 59
177.0188 999
177.2365 14
177.353 41
178.0287 10
END IONS

BEGIN IONS
TITLE=msLevel NA; retentionTime ; scanNum 
CHARGE=
SMILES=C[C@H]1[C@@H]([C@H]([C@H]([C@@H](O1)OC[C@@H]2[C@H]([C@@H]([C@H]([C@@H](O2)OC3=C(OC4=CC(=CC(=C4C3=O)O)O)C5=CC(=C(C=C5)O)OC)O)O)O)O)O)O
IONMODE=negative
ADDUCT=[M-H]-
INSTRUMENT_TYPE=Q-Tof
PRECURSOR_MZ=623.16121
SOURCE=Riken-respect-PT209120.txt
FORMULA=C28H32O16
COMPOUND_NAME=Isorhamnetin-3-Glucoside-6-Rhamnoside
243.0311 116
255.0315 83
271.0256 223
272.0324 54
285.0425 52
299.0211 324
300.0287 323
314.0453 371
315.0521 842
316.0575 117
623.1612 999
624.1725 255
END IONS

BEGIN IONS
TITLE=msLevel NA; retentionTime ; scanNum 
CHARGE=
SMILES=C1=CC(=CN=C1)O
IONMODE=negative
ADDUCT=[M-H]-
INSTRUMENT_TYPE=Q-Tof
PRECURSOR_MZ=94.02931
SOURCE=Riken-respect-PT207643.txt
FORMULA=C5H5NO
COMPOUND_NAME=3-Hydroxypyridine
94.0293 999
END IONS

BEGIN IONS
TITLE=msLevel NA; retentionTime ; scanNum 
CHARGE=
SMILES=C[C@H]1[C@@H]([C@H]([C@H]([C@@H](O1)OC2=CC(=C3C(=C2)OC(=C(C3=O)O[C@H]4[C@@H]([C@H]([C@@H]([C@H](O4)CO)O)O)O)C5=CC(=C(C=C5)O)O)O)O)O)O
IONMODE=negative
ADDUCT=[M-H]-
INSTRUMENT_TYPE=Q-Tof
PRECURSOR_MZ=609.14556
SOURCE=Riken-respect-PT211753.txt
FORMULA=C27H30O16
COMPOUND_NAME=Quercetin-3-O-b-glucopyranosyl-7-O-a-rhamnopyranoside
299.0186 675
300.0256 139
301.0349 637
302.0387 62
446.0848 999
447.0912 415
448.0959 43
463.0879 186
609.1456 87
END IONS

BEGIN IONS
TITLE=msLevel NA; retentionTime ; scanNum 
CHARGE=
SMILES=CN1C=NC(=N)C2=C1N=CN2
IONMODE=positive
ADDUCT=[M+H]+
INSTRUMENT_TYPE=Q-Tof
PRECURSOR_MZ=150.07794
SOURCE=Riken-respect-PT101063.txt
FORMULA=C6H7N5
COMPOUND_NAME=3-Methyladenine
123.0651 71
150.0779 999
END IONS

BEGIN IONS
TITLE=msLevel NA; retentionTime ; scanNum 
CHARGE=
SMILES=CS(=O)CCCCCCN=C=S
IONMODE=positive
ADDUCT=[M+H]+
INSTRUMENT_TYPE=Q-Tof
PRECURSOR_MZ=206.0673
SOURCE=Riken-respect-PT110620.txt
FORMULA=C8H15NOS2
COMPOUND_NAME=1-Isothiocyanato-6-(methylsulfinyl)-hexane
55.0581 250
65.0088 73
71.9939 191
80.0521 53
81.0724 119
83.0877 555
98.0988 158
108.0834 221
109.0907 635
133.0707 160
142.0704 999
147.0868 133
206.0673 954
END IONS

BEGIN IONS
TITLE=msLevel NA; retentionTime ; scanNum 
CHARGE=
SMILES=C[C@@H]([C@@H](C(=O)O)N)O
IONMODE=negative
ADDUCT=[M-H]-
INSTRUMENT_TYPE=Q-Tof
PRECURSOR_MZ=118.05044
SOURCE=Riken-respect-PT206950.txt
FORMULA=C4H9NO3
COMPOUND_NAME=L-allo-threonine
74.0254 999
118.0504 601
END IONS

BEGIN IONS
TITLE=msLevel NA; retentionTime ; scanNum 
CHARGE=
SMILES=CC(CC(=O)O)(CC(=O)O)O
IONMODE=negative
ADDUCT=[M-H]-
INSTRUMENT_TYPE=Q-Tof
PRECURSOR_MZ=161.04502
SOURCE=Riken-respect-PT209450.txt
FORMULA=C6H10O5
COMPOUND_NAME=3-Hydroxy-3-methylglutarate
57.036 189
99.045 999
101.0238 284
143.8891 166
160.8419 687
160.8917 374
161.045 611
END IONS

BEGIN IONS
TITLE=msLevel NA; retentionTime ; scanNum 
CHARGE=
SMILES=C1[C@H]([C@H](OC2=C1C(=CC(=C2[C@@H]3[C@H]([C@H](OC4=C(C(=CC(=C34)O)O)[C@@H]5[C@H]([C@H](OC6=CC(=CC(=C56)O)O)C7=CC(=C(C=C7)O)O)O)C8=CC(=C(C=C8)O)O)O)O)O)C9=CC(=C(C=C9)O)O)O
IONMODE=negative
ADDUCT=[M-H]-
INSTRUMENT_TYPE=Q-Tof
PRECURSOR_MZ=865.23
SOURCE=Riken-respect-PT212070.txt
FORMULA=C45H38O18
COMPOUND_NAME=Procyanidin C1
125.0295 507
161.0307 145
243.0406 144
287.0688 260
289.0844 277
407.096 285
425.1075 108
575.1474 116
577.1609 161
695.171 102
713.1839 93
865.2354 999
866.2419 508
END IONS

BEGIN IONS
TITLE=msLevel NA; retentionTime ; scanNum 
CHARGE=
SMILES=C[C@H]1[C@@H]([C@H]([C@H]([C@@H](O1)OC[C@@H]2[C@H]([C@@H]([C@H]([C@@H](O2)OC3=CC4=C(C=C(C=C4[O+]=C3C5=CC(=C(C=C5)O)O)O)O)O)O)O)O)O)O.[Cl-]
IONMODE=negative
ADDUCT=[M-2H]-
INSTRUMENT_TYPE=Q-Tof
PRECURSOR_MZ=593.15066
SOURCE=Riken-respect-PT204160.txt
FORMULA=C27H31O15
COMPOUND_NAME=Keracyanin Chloride
125.0251 53
147.009 65
255.0314 102
256.0382 56
283.0266 93
284.0339 747
285.042 472
299.057 54
593.1506 999
END IONS

BEGIN IONS
TITLE=msLevel NA; retentionTime ; scanNum 
CHARGE=
SMILES=CC[C@H](C)[C@@H](CC(=O)O)N.Cl
IONMODE=negative
ADDUCT=[M-H]-
INSTRUMENT_TYPE=Q-Tof
PRECURSOR_MZ=144.10247
SOURCE=Riken-respect-PT208000.txt
FORMULA=C7H15NO2
COMPOUND_NAME=L-beta-Homoisoleucine hydrochloride
142.8891 100
143.8999 517
144.1025 999
END IONS

BEGIN IONS
TITLE=msLevel NA; retentionTime ; scanNum 
CHARGE=
SMILES=C[C@H]1CCCC(=O)CCC/C=C/C2=C(C(=CC(=C2)O)O)C(=O)O1
IONMODE=positive
ADDUCT=[M+H]+
INSTRUMENT_TYPE=Q-Tof
PRECURSOR_MZ=319.15452
SOURCE=Riken-respect-PT111310.txt
FORMULA=C18H22O5
COMPOUND_NAME=zearalenone
69.0717 509
157.0669 579
185.0621 932
187.0773 991
203.0729 655
283.1345 999
301.1449 714
319.1545 609
END IONS

BEGIN IONS
TITLE=msLevel NA; retentionTime ; scanNum 
CHARGE=
SMILES=C1=NC(=C2C(=N1)N(C=N2)[C@H]3[C@@H]([C@@H]([C@H](O3)COP(=O)(O)O)O)O)N
IONMODE=positive
ADDUCT=[M+H]+
INSTRUMENT_TYPE=Q-Tof
PRECURSOR_MZ=348.07088
SOURCE=Riken-respect-PT101103.txt
FORMULA=C10H14N5O7P
COMPOUND_NAME=Adenosine-5'-monophosphate sodium salt
136.065 837
348.0709 999
END IONS

BEGIN IONS
TITLE=msLevel NA; retentionTime ; scanNum 
CHARGE=
SMILES=C(CC(=O)N[C@@H](CSSC[C@@H](C(=O)NCC(=O)O)NC(=O)CC[C@@H](C(=O)O)N)C(=O)NCC(=O)O)[C@@H](C(=O)O)N
IONMODE=positive
ADDUCT=[M+H]+
INSTRUMENT_TYPE=Q-Tof
PRECURSOR_MZ=613.15976
SOURCE=Riken-respect-PT102350.txt
FORMULA=C20H32N6O12S2
COMPOUND_NAME=Glutathione (oxidized form)
484.1439 24
612.8718 23
613.1598 999
END IONS

BEGIN IONS
TITLE=msLevel NA; retentionTime ; scanNum 
CHARGE=
SMILES=C[C@H]1[C@@H]([C@H]([C@H]([C@@H](O1)OC2=CC(=C3C(=C2)OC(=C(C3=O)O[C@H]4[C@@H]([C@@H]([C@H]([C@@H](O4)C)O)O)O)C5=CC=C(C=C5)O)O)O)O)O
IONMODE=negative
ADDUCT=[M-H]-
INSTRUMENT_TYPE=Q-Tof
PRECURSOR_MZ=577.15573
SOURCE=Riken-respect-PT210920.txt
FORMULA=C27H30O14
COMPOUND_NAME=Kaempferol-3,7-O-di-rhamnopyranoside
255.0311 263
283.0259 716
284.0325 132
285.0416 999
286.047 122
430.0936 236
431.1004 489
432.1079 72
577.1557 755
578.1671 170
END IONS

BEGIN IONS
TITLE=msLevel NA; retentionTime ; scanNum 
CHARGE=
SMILES=C1=CC=C2C(=C1)C(=CN2)C[C@@H](C(=O)O)N
IONMODE=positive
ADDUCT=[M+H]+
INSTRUMENT_TYPE=Q-Tof
PRECURSOR_MZ=205.09767
SOURCE=Riken-respect-PT100553.txt
FORMULA=C11H12N2O2
COMPOUND_NAME=L-Tryptophane
146.0634 308
159.0952 153
188.0755 629
205.0977 999
END IONS

BEGIN IONS
TITLE=msLevel NA; retentionTime ; scanNum 
CHARGE=
SMILES=C1CCNC(C1)C(=O)O
IONMODE=positive
ADDUCT=[M+H]+
INSTRUMENT_TYPE=Q-Tof
PRECURSOR_MZ=130.08677
SOURCE=Riken-respect-PT110973.txt
FORMULA=C6H11NO2
COMPOUND_NAME=DL-Pipecolinic acid
55.0568 5
56.0504 63
67.0547 24
69.0603 13
82.0663 11
83.9932 5
84.0312 5
84.0506 7
84.0818 999
84.6501 5
85.0601 5
130.0868 7
END IONS

BEGIN IONS
TITLE=msLevel NA; retentionTime ; scanNum 
CHARGE=
SMILES=COC1=C(C=CC(=C1)C2=[O+]C3=CC(=CC(=C3C=C2O)O)O)O.[Cl-]
IONMODE=negative
ADDUCT=[M-2H]-
INSTRUMENT_TYPE=Q-Tof
PRECURSOR_MZ=299.05559
SOURCE=Riken-respect-PT212110.txt
FORMULA=C16H13O6
COMPOUND_NAME=Peonidin
134.9682 196
151.0029 275
207.0281 269
208.9967 123
256.062 89
266.9895 248
283.0225 557
284.0571 170
299.0556 999
END IONS

BEGIN IONS
TITLE=msLevel NA; retentionTime ; scanNum 
CHARGE=
SMILES=COC1=CC(=CC(=C1O)O)C2=[O+]C3=CC(=CC(=C3C=C2O[C@H]4[C@@H]([C@H]([C@@H]([C@H](O4)CO)O)O)O)O)O.[Cl-]
IONMODE=positive
ADDUCT=[M]+
INSTRUMENT_TYPE=Q-Tof
PRECURSOR_MZ=479.11892
SOURCE=Riken-respect-PT112180.txt
FORMULA=C22H23O12
COMPOUND_NAME=Petunidin-3-O-beta-glucopyranoside
203.0361 48
217.0519 49
245.0469 66
274.0492 85
302.044 210
317.0669 999
479.1189 166
END IONS

BEGIN IONS
TITLE=msLevel NA; retentionTime ; scanNum 
CHARGE=
SMILES=C1=CC(=CC=C1C2=CC(=O)C3=C(C=C(C=C3O2)O)O)O
IONMODE=positive
ADDUCT=[M+H]+
INSTRUMENT_TYPE=Q-Tof
PRECURSOR_MZ=271.06062
SOURCE=Riken-respect-PT103933.txt
FORMULA=C15H10O5
COMPOUND_NAME=Apigenin
67.0186 180
68.9985 161
91.0549 323
119.0501 467
121.0305 166
141.0732 60
145.0296 203
153.0198 999
163.0419 71
243.0659 65
271.0606 369
END IONS

BEGIN IONS
TITLE=msLevel NA; retentionTime ; scanNum 
CHARGE=
SMILES=C([C@H]([C@H](C=O)O)O)O
IONMODE=positive
ADDUCT=[M+H]+
INSTRUMENT_TYPE=Q-Tof
PRECURSOR_MZ=121.05006
SOURCE=Riken-respect-PT107770.txt
FORMULA=C4H8O4
COMPOUND_NAME=D-(-)-Erythrose
77.0291 545
91.0425 494
93.0578 999
121.0501 314
END IONS

BEGIN IONS
TITLE=msLevel NA; retentionTime ; scanNum 
CHARGE=
SMILES=C[C@H]1[C@@H]([C@H]([C@H]([C@@H](O1)OC2=CC(=C3C(=C2)OC(=C(C3=O)O[C@H]4[C@@H]([C@@H]([C@H]([C@@H](O4)C)O)O)O)C5=CC=C(C=C5)O)O)O)O)O
IONMODE=positive
COLLISION_ENERGY=15->55V
ADDUCT=[M+H]+
INSTRUMENT_TYPE=Q-TOF
PRECURSOR_MZ=579.1713
SOURCE=Riken-respect-PM018143.txt
FORMULA=C27H30O14
COMPOUND_NAME=Kaempferol 3,7-O-dirhamnopyranoside
INSTRUMENT=QTOF Premier
71.0404 7
85.0222 12
129.0536 5
287.0553 100
288.0596 3
433.1076 47
579.1713 8
END IONS

BEGIN IONS
TITLE=msLevel NA; retentionTime ; scanNum 
CHARGE=
SMILES=C(C[C@@H](C(=O)O)N)CNC(=O)N
IONMODE=positive
ADDUCT=[M+H]+
INSTRUMENT_TYPE=Q-Tof
PRECURSOR_MZ=176.10349
SOURCE=Riken-respect-PT111890.txt
FORMULA=C6H13N3O3
COMPOUND_NAME=L-Citrulline
70.0655 999
113.0705 623
114.0554 100
115.0866 138
116.0698 81
159.0751 752
176.1035 75
END IONS

BEGIN IONS
TITLE=msLevel NA; retentionTime ; scanNum 
CHARGE=
SMILES=CCC[C@@H](C(=O)O)N
IONMODE=negative
ADDUCT=[M-H]-
INSTRUMENT_TYPE=Q-Tof
PRECURSOR_MZ=116.07117
SOURCE=Riken-respect-PT202840.txt
FORMULA=C5H11NO2
COMPOUND_NAME=L-Norvaline
115.9259 24
116.0712 999
END IONS

BEGIN IONS
TITLE=msLevel NA; retentionTime ; scanNum 
CHARGE=
SMILES=C1=CN=CC=C1C(=O)O
IONMODE=positive
ADDUCT=[M+H]+
INSTRUMENT_TYPE=Q-Tof
PRECURSOR_MZ=124.03983
SOURCE=Riken-respect-PT102620.txt
FORMULA=C6H5NO2
COMPOUND_NAME=Isonicotinic acid
80.0519 254
96.0469 214
124.0398 999
END IONS

BEGIN IONS
TITLE=msLevel NA; retentionTime ; scanNum 
CHARGE=
SMILES=C1=CC(=C(C=C1C2=C(C(=O)C3=C(O2)C(=C(C=C3O)O)O[C@H]4[C@@H]([C@H]([C@@H]([C@H](O4)CO)O)O)O)O)O)O
IONMODE=positive
ADDUCT=[M+H]+
INSTRUMENT_TYPE=Q-Tof
PRECURSOR_MZ=481.09819
SOURCE=Riken-respect-PT108480.txt
FORMULA=C21H20O13
COMPOUND_NAME=Gossypin
99.5107 50
169.0117 85
245.0427 54
319.0454 999
481.0982 341
END IONS

BEGIN IONS
TITLE=msLevel NA; retentionTime ; scanNum 
CHARGE=
SMILES=C([C@@H]1[C@H]([C@@H]([C@H]([C@H](O1)OC[C@@H]2[C@H]([C@@H]([C@](O2)(CO)O)O)O)O)O)O)O
IONMODE=negative
ADDUCT=[M-H]-
INSTRUMENT_TYPE=Q-Tof
PRECURSOR_MZ=341.10841
SOURCE=Riken-respect-PT212460.txt
FORMULA=C12H22O11
COMPOUND_NAME=Palatinose Monohydrate
59.015 371
71.0148 821
73.0305 84
83.0141 64
85.0298 99
89.0237 597
101.0234 999
113.0233 298
119.0333 270
131.0331 88
143.0345 119
161.0447 214
179.0539 848
221.0646 583
341.1084 56
END IONS

BEGIN IONS
TITLE=msLevel NA; retentionTime ; scanNum 
CHARGE=
SMILES=C1=NC(=C2C(=N1)N(C=N2)[C@H]3[C@@H]([C@@H]([C@H](O3)CO)O)O)N
IONMODE=positive
COLLISION_ENERGY=15->55V
ADDUCT=[M+H]+
INSTRUMENT_TYPE=Q-TOF
PRECURSOR_MZ=268.1065
SOURCE=Riken-respect-PM018194.txt
FORMULA=C10H13N5O4
COMPOUND_NAME=Adenosine
INSTRUMENT=QTOF Premier
119.0337 15
136.0614 100
268.1065 14
END IONS

BEGIN IONS
TITLE=msLevel NA; retentionTime ; scanNum 
CHARGE=
SMILES=C1[C@H]([C@H](OC2=CC(=CC(=C21)O)O)C3=CC(=C(C=C3)O)O)O
IONMODE=negative
ADDUCT=[M-H]-
INSTRUMENT_TYPE=Q-Tof
PRECURSOR_MZ=289.07123
SOURCE=Riken-respect-PT204570.txt
FORMULA=C15H14O6
COMPOUND_NAME=(-)-Epicatechin
81.0353 55
83.015 72
93.0355 50
95.051 73
97.0299 126
109.0298 447
121.0298 108
122.0374 78
123.0455 403
125.0248 261
135.0451 51
137.0248 160
149.0249 85
151.0403 167
159.0451 70
161.0612 87
164.0119 59
165.0196 70
179.0356 106
187.041 94
188.0487 71
203.0721 250
205.052 189
221.0833 79
245.0828 364
289.0712 999
END IONS

BEGIN IONS
TITLE=msLevel NA; retentionTime ; scanNum 
CHARGE=
SMILES=C1[C@@H]([C@H](O[C@H]1N2C=NC3=C(N=CN=C32)N)COP(=O)(O)O)O
IONMODE=negative
ADDUCT=[M-H]-
INSTRUMENT_TYPE=Q-Tof
PRECURSOR_MZ=330.06037
SOURCE=Riken-respect-PT201420.txt
FORMULA=C10H14N5O6P
COMPOUND_NAME=2'-Deoxyadenosine-5'-monophosphate
78.9595 999
96.9692 291
134.0469 769
176.9959 155
195.0064 351
330.0604 687
END IONS

BEGIN IONS
TITLE=msLevel NA; retentionTime ; scanNum 
CHARGE=
SMILES=C1=NC(=C2C(=N1)N(C=N2)[C@H]3[C@@H]([C@@H]([C@H](O3)COP(=O)(O)O)O)O)N
IONMODE=positive
COLLISION_ENERGY=15->55V
ADDUCT=[M+H]+
INSTRUMENT_TYPE=Q-TOF
PRECURSOR_MZ=133.9761
SOURCE=Riken-respect-PM018195.txt
FORMULA=C10H14N5O7P1
COMPOUND_NAME=AMP
INSTRUMENT=QTOF Premier
69.0705 13
86.0963 100
88.0018 8
98.9601 4
99.5094 12
115.9651 22
117.9607 3
124.9638 6
132.1025 7
133.9761 8
END IONS

BEGIN IONS
TITLE=msLevel NA; retentionTime ; scanNum 
CHARGE=
SMILES=CC1=CC(=O)OC2=C1C=CC(=C2)O
IONMODE=negative
ADDUCT=[M-H]-
INSTRUMENT_TYPE=Q-Tof
PRECURSOR_MZ=175.03954
SOURCE=Riken-respect-PT200703.txt
FORMULA=C10H8O3
COMPOUND_NAME=7-Hydroxy-4-methylcoumarin
65.0044 197
77.0404 358
89.0401 504
91.0192 115
93.0346 174
105.0348 339
119.05 999
131.0497 146
133.0287 476
147.0445 236
175.0395 168
END IONS

BEGIN IONS
TITLE=msLevel NA; retentionTime ; scanNum 
CHARGE=
SMILES=C[C@H]1[C@@H]([C@H]([C@H]([C@@H](O1)OC[C@@H]2[C@H]([C@@H]([C@H]([C@@H](O2)OC3=C(OC4=CC(=CC(=C4C3=O)O)O)C5=CC(=C(C=C5)O)OC)O)O)O)O)O)O
IONMODE=negative
ADDUCT=[M-H]-
INSTRUMENT_TYPE=Q-Tof
PRECURSOR_MZ=623.16123
SOURCE=Riken-respect-PT204203.txt
FORMULA=C28H32O16
COMPOUND_NAME=isorhamnetin-3-O-rutinoside
299.0211 123
300.0289 153
314.0442 553
315.052 999
623.1613 96
END IONS

BEGIN IONS
TITLE=msLevel NA; retentionTime ; scanNum 
CHARGE=
SMILES=C(CP(=O)(O)O)N
IONMODE=negative
ADDUCT=[M-H]-
INSTRUMENT_TYPE=Q-Tof
PRECURSOR_MZ=124.01638
SOURCE=Riken-respect-PT201390.txt
FORMULA=C2H8NO3P
COMPOUND_NAME=2-Aminoethylphosphonic acid
78.9595 777
79.9672 55
106.9891 81
124.0164 999
END IONS

BEGIN IONS
TITLE=msLevel NA; retentionTime ; scanNum 
CHARGE=
SMILES=C/C(=C\C(=O)O)/C(=O)O
IONMODE=negative
ADDUCT=[M-H]-
INSTRUMENT_TYPE=Q-Tof
PRECURSOR_MZ=129.01881
SOURCE=Riken-respect-PT200930.txt
FORMULA=C5H6O4
COMPOUND_NAME=Mesaconic acid
85.0291 999
129.0188 160
END IONS

BEGIN IONS
TITLE=msLevel NA; retentionTime ; scanNum 
CHARGE=
SMILES=CC(CCC(=O)O)C(=O)O
IONMODE=negative
ADDUCT=[M-H]-
INSTRUMENT_TYPE=Q-Tof
PRECURSOR_MZ=145.05011
SOURCE=Riken-respect-PT209900.txt
FORMULA=C6H10O4
COMPOUND_NAME=2-Methylglutaric Acid
83.0503 133
101.0606 999
145.0501 605
END IONS

BEGIN IONS
TITLE=msLevel NA; retentionTime ; scanNum 
CHARGE=
SMILES=C[C@H]1[C@@H]([C@H]([C@H]([C@@H](O1)OC2=CC(=C3C(=C2)OC(=C(C3=O)O[C@H]4[C@@H]([C@@H]([C@H]([C@@H](O4)C)O)O)O)C5=CC(=C(C=C5)O)O)O)O)O)O
IONMODE=positive
COLLISION_ENERGY=15->55V
ADDUCT=[M+H]+
INSTRUMENT_TYPE=Q-TOF
PRECURSOR_MZ=595.1795
SOURCE=Riken-respect-PM018156.txt
FORMULA=C27H30O15
COMPOUND_NAME=Quercetin-3,7-O-a-L-dirhamnoside
INSTRUMENT=QTOF Premier
85.0228 3
153.0176 3
287.0565 100
288.0643 3
303.0526 16
433.1205 30
449.119 17
595.1795 11
END IONS

BEGIN IONS
TITLE=msLevel NA; retentionTime ; scanNum 
CHARGE=
SMILES=CN(C)CC(=O)O
IONMODE=negative
ADDUCT=[M-H]-
INSTRUMENT_TYPE=Q-Tof
PRECURSOR_MZ=102.05553
SOURCE=Riken-respect-PT203020.txt
FORMULA=C4H9NO2
COMPOUND_NAME=N,N-Dimethylglycine
102.0555 999
END IONS

BEGIN IONS
TITLE=msLevel NA; retentionTime ; scanNum 
CHARGE=
SMILES=C1=CC(=CC=C1/C=C/C(=O)O)O
IONMODE=negative
ADDUCT=[M-H]-
INSTRUMENT_TYPE=Q-Tof
PRECURSOR_MZ=163.03954
SOURCE=Riken-respect-PT211430.txt
FORMULA=C9H8O3
COMPOUND_NAME=p-Coumaric acid
101.0121 10
118.9791 10
145.8717 471
162.8717 999
163.0395 12
END IONS

BEGIN IONS
TITLE=msLevel NA; retentionTime ; scanNum 
CHARGE=
SMILES=CC(C)(CO)[C@H](C(=O)NCCC(=O)O)O
IONMODE=negative
ADDUCT=[M-H]-
INSTRUMENT_TYPE=Q-Tof
PRECURSOR_MZ=218.10287
SOURCE=Riken-respect-PT210060.txt
FORMULA=C9H17NO5
COMPOUND_NAME=D-Pantothenic acid hemicalcium salt
71.0156 84
71.0512 266
88.0407 999
99.0457 88
146.0816 610
218.1029 519
END IONS

BEGIN IONS
TITLE=msLevel NA; retentionTime ; scanNum 
CHARGE=
SMILES=CC(C)[C@@H](CC(=O)O)N.Cl
IONMODE=negative
ADDUCT=[M-H]-
INSTRUMENT_TYPE=Q-Tof
PRECURSOR_MZ=130.08682
SOURCE=Riken-respect-PT206170.txt
FORMULA=C6H13NO2
COMPOUND_NAME=L-beta-homovaline-HCl
59.0152 32
129.8702 71
130.0868 999
END IONS

BEGIN IONS
TITLE=msLevel NA; retentionTime ; scanNum 
CHARGE=
SMILES=CC1C(C(C(C(O1)OC2C(OC(C(C2O)O)OC3=C(OC4=CC(=CC(=C4C3=O)O)OC5C(C(C(C(O5)C)O)O)O)C6=CC=C(C=C6)O)C)O)O)O
IONMODE=positive
ADDUCT=[M+H]+
INSTRUMENT_TYPE=Q-Tof
PRECURSOR_MZ=725.22927
SOURCE=Riken-respect-PT109210.txt
FORMULA=C33H40O18
COMPOUND_NAME=Kaempferol-3-Rhamnoside-4-Rhamnoside,-7-Rhamnoside
71.0509 120
83.0502 72
85.0295 249
111.0448 80
129.0553 151
147.0658 44
153.0541 40
171.0656 21
239.0923 122
257.1018 32
275.1136 33
287.0555 999
288.0581 48
293.1229 20
433.1141 617
434.1191 35
579.1735 64
725.2292 143
END IONS

BEGIN IONS
TITLE=msLevel NA; retentionTime ; scanNum 
CHARGE=
SMILES=C1=CN(C(=O)N=C1N)[C@H]2[C@@H]([C@@H]([C@H](O2)CO)O)O
IONMODE=positive
ADDUCT=[M+H]+
INSTRUMENT_TYPE=Q-Tof
PRECURSOR_MZ=244.09332
SOURCE=Riken-respect-PT101880.txt
FORMULA=C9H13N3O5
COMPOUND_NAME=Cytidine,cell culture tested
112.052 613
244.019 36
244.0933 999
END IONS

BEGIN IONS
TITLE=msLevel NA; retentionTime ; scanNum 
CHARGE=
SMILES=C1=C(C=C(C(=C1O)O)O)C2=C(C(=O)C3=C(C=C(C=C3O2)O)O)O[C@H]4[C@@H]([C@H]([C@H]([C@H](O4)CO)O)O)O
IONMODE=negative
ADDUCT=[M-H]-
INSTRUMENT_TYPE=Q-Tof
PRECURSOR_MZ=479.08257
SOURCE=Riken-respect-PT209280.txt
FORMULA=C21H20O13
COMPOUND_NAME=Myricetin-3-Galactoside
151.0035 60
178.9982 56
214.0279 85
242.0225 68
243.03 60
259.0256 92
270.0177 74
271.0251 448
287.0204 266
316.0225 999
317.0294 231
479.0826 877
480.0884 104
END IONS

BEGIN IONS
TITLE=msLevel NA; retentionTime ; scanNum 
CHARGE=
SMILES=C1C[C@H](NC1)CNC2=CC=CC=C2
IONMODE=positive
ADDUCT=[M+H]+
INSTRUMENT_TYPE=Q-Tof
PRECURSOR_MZ=177.13914
SOURCE=Riken-respect-PT104683.txt
FORMULA=C11H16N2
COMPOUND_NAME=(S)-(+)-2-(anilinomethyl)pyrrolidine
56.0505 103
67.0545 54
77.0396 85
84.0811 999
117.0572 53
END IONS

BEGIN IONS
TITLE=msLevel NA; retentionTime ; scanNum 
CHARGE=
SMILES=C1=CC=C(C(=C1)/C=C/C(=O)O)O
IONMODE=negative
ADDUCT=[M-H]-
INSTRUMENT_TYPE=Q-Tof
PRECURSOR_MZ=163.03954
SOURCE=Riken-respect-PT203140.txt
FORMULA=C9H8O3
COMPOUND_NAME=2-Hydroxycinnamic acid, predominantly trans
119.0501 430
162.8392 999
END IONS

BEGIN IONS
TITLE=msLevel NA; retentionTime ; scanNum 
CHARGE=
SMILES=C1=NC2=C(C(=O)N1)N=CN2[C@H]3[C@@H]([C@@H]([C@H](O3)COP(=O)(O)O)O)O
IONMODE=positive
ADDUCT=[M+H]+
INSTRUMENT_TYPE=Q-Tof
PRECURSOR_MZ=349.0549
SOURCE=Riken-respect-PT102580.txt
FORMULA=C10H13N4O8P
COMPOUND_NAME=Inosine-5'-monophosphate
94.042 24
97.029 114
110.0353 43
119.0362 33
137.0468 999
349.0549 11
END IONS

BEGIN IONS
TITLE=msLevel NA; retentionTime ; scanNum 
CHARGE=
SMILES=C(CS(=O)O)N
IONMODE=negative
ADDUCT=[M-H]-
INSTRUMENT_TYPE=Q-Tof
PRECURSOR_MZ=108.01195
SOURCE=Riken-respect-PT202510.txt
FORMULA=C2H7NO2S
COMPOUND_NAME=Hypotaurine
63.9627 999
64.9719 261
108.0119 501
END IONS

BEGIN IONS
TITLE=msLevel NA; retentionTime ; scanNum 
CHARGE=
SMILES=C1=NNC2=C1C(=O)NC(=O)N2
IONMODE=negative
ADDUCT=[M-H]-
INSTRUMENT_TYPE=Q-Tof
PRECURSOR_MZ=151.02562
SOURCE=Riken-respect-PT210100.txt
FORMULA=C5H4N4O2
COMPOUND_NAME=Oxypurinol
108.0215 74
151.0256 999
END IONS

BEGIN IONS
TITLE=msLevel NA; retentionTime ; scanNum 
CHARGE=
SMILES=C[C@H]1[C@@H]([C@H]([C@H]([C@@H](O1)OC2=CC(=C3C(=C2)OC(=C(C3=O)O)C4=CC=C(C=C4)O)O)O)O)O
IONMODE=negative
ADDUCT=[M-H]-
INSTRUMENT_TYPE=Q-Tof
PRECURSOR_MZ=431.09782
SOURCE=Riken-respect-PT204613.txt
FORMULA=C21H20O10
COMPOUND_NAME=Kaempferol-7-O-alpha-L-rhamnoside
63.026 21
65.005 12
83.0147 52
107.0137 187
123.0087 11
132.0215 17
133.0283 11
149.9949 26
151.0027 999
152.006 33
163.0028 26
164.0107 58
171.0438 10
185.0602 43
199.0402 12
212.0482 10
213.0552 111
227.0349 36
228.0431 17
229.0507 92
239.0349 11
240.0435 30
241.0506 67
255.0302 69
256.0362 24
257.045 570
258.0495 32
283.0259 14
284.0323 803
285.0404 637
286.0438 39
431.0978 12
END IONS

BEGIN IONS
TITLE=msLevel NA; retentionTime ; scanNum 
CHARGE=
SMILES=C[C@H]1[C@@H]([C@H]([C@H]([C@@H](O1)OC2=CC(=C3C(=C2)OC(=C(C3=O)O[C@H]4[C@@H]([C@H]([C@H]([C@H](O4)CO)O)O)O)C5=CC=C(C=C5)O)O)O)O)O
IONMODE=positive
ADDUCT=[M+H]+
INSTRUMENT_TYPE=Q-Tof
PRECURSOR_MZ=595.16628
SOURCE=Riken-respect-PT104640.txt
FORMULA=C27H30O15
COMPOUND_NAME=Kaempferol-3-O-beta-D-galactoside-7-O-alpha-L-rhamnoside
287.0548 999
433.1127 271
595.1663 83
END IONS

BEGIN IONS
TITLE=msLevel NA; retentionTime ; scanNum 
CHARGE=
SMILES=C1=CC(=CC=C1/C=C/C(=O)OC[C@@H]2[C@H]([C@@H]([C@H]([C@@H](O2)OC3=C(OC4=CC(=CC(=C4C3=O)O)O)C5=CC=C(C=C5)O)O)O)O)O
IONMODE=positive
ADDUCT=[M+H]+
INSTRUMENT_TYPE=Q-Tof
PRECURSOR_MZ=595.14513
SOURCE=Riken-respect-PT108720.txt
FORMULA=C30H26O13
COMPOUND_NAME=Tiliroside
119.0505 98
147.0459 999
165.0568 46
287.0563 303
291.0894 54
309.0992 84
595.1451 40
END IONS

BEGIN IONS
TITLE=msLevel NA; retentionTime ; scanNum 
CHARGE=
SMILES=C([C@H]([C@H](C=O)O)O)OP(=O)(O)O
IONMODE=negative
ADDUCT=[M-H]-
INSTRUMENT_TYPE=Q-Tof
PRECURSOR_MZ=199.00079
SOURCE=Riken-respect-PT202060.txt
FORMULA=C4H9O7P
COMPOUND_NAME=D-Erythrose-4-phosphate sodium salt
78.9602 716
96.9703 999
138.98 85
154.9088 32
199.0008 32
END IONS

BEGIN IONS
TITLE=msLevel NA; retentionTime ; scanNum 
CHARGE=
SMILES=C[C@H]1[C@@H]([C@H]([C@H](C(O1)OC[C@@H]2[C@H]([C@@H]([C@H](C(O2)OC3=C([O+]=C4C=C(C=C(C4=C3)OC5[C@@H]([C@H]([C@@H]([C@H](O5)CO)O)O)O)O)C6=CC(=C(C(=C6)OC)O)O)O)O)O)O)O)OC(=O)/C=C/C7=CC=C(C=C7)O.[Cl-]
IONMODE=negative
ADDUCT=[M-2H]-
INSTRUMENT_TYPE=Q-Tof
PRECURSOR_MZ=931.25083
SOURCE=Riken-respect-PT212273.txt
FORMULA=C43H49O23
COMPOUND_NAME=Petunidin-3-O-(6''-O-(4'''-O-E-coum)-alpha-rhamnopyranosyl-beta-glucopyranosyl)-5-O-beta-glucopyranoside
125.0277 91
314.0509 125
315.0605 745
476.1081 49
477.1162 999
623.1734 299
643.1888 69
769.2147 850
931.2509 38
931.2856 37
END IONS

BEGIN IONS
TITLE=msLevel NA; retentionTime ; scanNum 
CHARGE=
SMILES=C(C[C@@H](C(=O)O)N)CN=C(N)N
IONMODE=negative
ADDUCT=[M-H]-
INSTRUMENT_TYPE=Q-Tof
PRECURSOR_MZ=173.10387
SOURCE=Riken-respect-PT206560.txt
FORMULA=C6H14N4O2
COMPOUND_NAME=L(+)-Arginine
131.0823 999
173.1039 168
END IONS

BEGIN IONS
TITLE=msLevel NA; retentionTime ; scanNum 
CHARGE=
SMILES=C(CC(C(=O)O)N)CC(C(=O)O)N
IONMODE=positive
ADDUCT=[M+H]+
INSTRUMENT_TYPE=Q-Tof
PRECURSOR_MZ=191.10315
SOURCE=Riken-respect-PT102033.txt
FORMULA=C7H14N2O4
COMPOUND_NAME=DL-alpha,epsilon-Diaminopimelic acid
82.0671 131
128.0731 530
191.1031 999
END IONS

BEGIN IONS
TITLE=msLevel NA; retentionTime ; scanNum 
CHARGE=
SMILES=COC1=C(C=CC(=C1)C2=C(C=C3C(=CC(=CC3=[O+]2)O)O[C@H]4[C@@H]([C@H]([C@@H]([C@H](O4)CO)O)O)O)O[C@H]5[C@@H]([C@H]([C@@H]([C@H](O5)CO)O)O)O)O.[Cl-]
IONMODE=positive
ADDUCT=[M]+
INSTRUMENT_TYPE=Q-Tof
PRECURSOR_MZ=625.17683
SOURCE=Riken-respect-PT112220.txt
FORMULA=C28H33O16
COMPOUND_NAME=Peonidin-3,5-O-di-beta-glucopyranoside
286.0489 133
301.0717 999
463.1255 177
625.1768 263
END IONS

BEGIN IONS
TITLE=msLevel NA; retentionTime ; scanNum 
CHARGE=
SMILES=CN1C=NC=C1C[C@@H](C(=O)O)NC(=O)CCN
IONMODE=negative
ADDUCT=[M-H]-
INSTRUMENT_TYPE=Q-Tof
PRECURSOR_MZ=239.11443
SOURCE=Riken-respect-PT209860.txt
FORMULA=C10H16N4O3
COMPOUND_NAME=L-Anserine nitrate salt
151.0507 144
164.8955 166
166.0987 229
168.0772 999
223.0287 279
238.915 99
239.1144 737
END IONS

BEGIN IONS
TITLE=msLevel NA; retentionTime ; scanNum 
CHARGE=
SMILES=C1=CC(=C(C=C1C2=C(C(=O)C3=C(C=C(C=C3O2)O)O)O[C@H]4[C@@H]([C@H]([C@@H]([C@H](O4)CO)O)O)O)O)O
IONMODE=positive
ADDUCT=[M+H]+
INSTRUMENT_TYPE=Q-Tof
PRECURSOR_MZ=465.10327
SOURCE=Riken-respect-PT104330.txt
FORMULA=C21H20O12
COMPOUND_NAME=quercetin-3-O-beta-glucopyranoside
69.0349 15
81.0344 11
85.029 69
97.0299 24
109.0299 16
111.0091 10
127.0411 19
137.0242 35
145.0529 17
153.019 48
165.0192 28
201.0566 20
229.0503 48
257.0444 31
285.0385 12
303.0491 999
304.0519 15
465.1033 14
END IONS

BEGIN IONS
TITLE=msLevel NA; retentionTime ; scanNum 
CHARGE=
SMILES=C1=C(NC=N1)CCN
IONMODE=positive
ADDUCT=[M+H]+
INSTRUMENT_TYPE=Q-Tof
PRECURSOR_MZ=112.08744
SOURCE=Riken-respect-PT101260.txt
FORMULA=C5H9N3
COMPOUND_NAME=Histamine
95.0597 42
112.0269 35
112.0874 999
END IONS

BEGIN IONS
TITLE=msLevel NA; retentionTime ; scanNum 
CHARGE=
SMILES=C[C@H]1[C@@H]([C@H]([C@H]([C@@H](O1)OC[C@@H]2[C@H]([C@@H]([C@H]([C@@H](O2)OC3=CC(=C4C(=C3)OC(=CC4=O)C5=CC=C(C=C5)OC)O)O)O)O)O)O)O
IONMODE=positive
ADDUCT=[M+H]+
INSTRUMENT_TYPE=Q-Tof
PRECURSOR_MZ=593.187
SOURCE=Riken-respect-PT108520.txt
FORMULA=C28H32O14
COMPOUND_NAME=Linarin
242.0597 49
270.0538 51
285.077 999
447.1298 237
593.187 150
END IONS

BEGIN IONS
TITLE=msLevel NA; retentionTime ; scanNum 
CHARGE=
SMILES=C[N+]1=CC=CC=C1/C=N/O
IONMODE=positive
ADDUCT=[M+H]+
INSTRUMENT_TYPE=Q-Tof
PRECURSOR_MZ=137.07146
SOURCE=Riken-respect-PT103313.txt
FORMULA=C7H9N2O
COMPOUND_NAME=Pyridine-2-aldoxime methochloride
65.0385 101
66.0465 148
67.0419 59
78.0336 147
79.0409 16
92.0491 340
93.0568 999
96.0438 29
110.0587 65
119.06 449
120.0673 20
137.0715 15
END IONS

BEGIN IONS
TITLE=msLevel NA; retentionTime ; scanNum 
CHARGE=
SMILES=CSCCCCC(=NOS(=O)(=O)O)S[C@H]1[C@@H]([C@H]([C@@H]([C@H](O1)CO)O)O)O
IONMODE=negative
ADDUCT=[M-H]-
INSTRUMENT_TYPE=Q-Tof
PRECURSOR_MZ=420.04567
SOURCE=Riken-respect-PT205080.txt
FORMULA=C12H23NO9S3
COMPOUND_NAME=4-methylthiobutyl glucosinolate
74.9939 559
79.9601 147
95.9546 640
96.9622 999
420.0457 814
420.561 78
END IONS

BEGIN IONS
TITLE=msLevel NA; retentionTime ; scanNum 
CHARGE=
SMILES=C[C@H]1[C@@H]([C@H]([C@H]([C@@H](O1)O[C@@H]2[C@H]([C@@H]([C@H](O[C@H]2OC3=C(OC4=CC(=CC(=C4C3=O)O)O[C@H]5[C@@H]([C@@H]([C@H]([C@@H](O5)C)O)O)O)C6=CC=C(C=C6)O)CO)O)O)O)O)O
IONMODE=positive
ADDUCT=[M+H]+
INSTRUMENT_TYPE=Q-Tof
PRECURSOR_MZ=741.22419
SOURCE=Riken-respect-PT109170.txt
FORMULA=C33H40O19
COMPOUND_NAME=Kaempferol-3-Glucoside-2-Rhamnoside,-7-Rhamnoside
71.0508 29
85.0293 79
129.055 33
287.0548 999
288.0586 46
433.1134 412
434.1192 21
595.167 170
741.2242 76
END IONS

BEGIN IONS
TITLE=msLevel NA; retentionTime ; scanNum 
CHARGE=
SMILES=CS(=O)CCCC/C(=N\OS(=O)(=O)O)/S[C@H]1[C@@H]([C@H]([C@@H]([C@H](O1)CO)O)O)O
IONMODE=negative
COLLISION_ENERGY=15->55V
ADDUCT=[M-H]-
INSTRUMENT_TYPE=Q-TOF
PRECURSOR_MZ=436.0405
SOURCE=Riken-respect-PM018008.txt
FORMULA=C12H23N1O10S3
COMPOUND_NAME=4-Methylsulfinyl-n-butyl glucosinolate
INSTRUMENT=QTOF Premier
74.9942 13
79.9576 3
95.9541 33
96.9621 44
178.0225 12
372.0467 19
436.0405 100
END IONS

BEGIN IONS
TITLE=msLevel NA; retentionTime ; scanNum 
CHARGE=
SMILES=C[C@H]1[C@@H]([C@H]([C@H]([C@@H](O1)OC[C@@H]2[C@H]([C@@H]([C@H]([C@@H](O2)OC3=C(OC4=CC(=CC(=C4C3=O)O)O)C5=CC(=C(C=C5)O)OC)O)O)O)O)O)O
IONMODE=negative
ADDUCT=[M-H]-
INSTRUMENT_TYPE=Q-Tof
PRECURSOR_MZ=623.16121
SOURCE=Riken-respect-PT209123.txt
FORMULA=C28H32O16
COMPOUND_NAME=Isorhamnetin-3-Glucoside-6-Rhamnoside
299.0193 82
300.0272 116
314.0425 463
315.0504 999
316.0555 151
623.1612 102
END IONS

BEGIN IONS
TITLE=msLevel NA; retentionTime ; scanNum 
CHARGE=
SMILES=C=C(C(=O)O)OP(=O)(O)O
IONMODE=negative
ADDUCT=[M-H]-
INSTRUMENT_TYPE=Q-Tof
PRECURSOR_MZ=166.97458
SOURCE=Riken-respect-PT206210.txt
FORMULA=C3H5O6P
COMPOUND_NAME=Phosphoenolpyruvic Acid Trisodium Salt hydrate
78.9339 999
148.9588 96
166.9746 98
END IONS

BEGIN IONS
TITLE=msLevel NA; retentionTime ; scanNum 
CHARGE=
SMILES=CC(C)C[C@@H](C(=O)N[C@@H](CC(C)C)C(=O)N[C@@H](CC1=CC=C(C=C1)O)C(=O)O)N
IONMODE=negative
ADDUCT=[M-H]-
INSTRUMENT_TYPE=Q-Tof
PRECURSOR_MZ=406.23421
SOURCE=Riken-respect-PT202710.txt
FORMULA=C21H33N3O5
COMPOUND_NAME=Leucylleucyltyrosine
119.0512 123
129.1039 289
180.0673 491
225.162 141
242.189 263
362.248 153
406.2342 999
END IONS

BEGIN IONS
TITLE=msLevel NA; retentionTime ; scanNum 
CHARGE=
SMILES=C1=CC(=O)OC2=CC(=C(C=C21)O)O
IONMODE=negative
ADDUCT=[M-H]-
INSTRUMENT_TYPE=Q-Tof
PRECURSOR_MZ=177.01881
SOURCE=Riken-respect-PT212503.txt
FORMULA=C9H6O4
COMPOUND_NAME=6,7-Dihydroxycoumarin
65.0044 33
65.0418 73
67.0193 87
68.9981 30
75.0246 53
77.0404 426
79.0197 402
81.0352 294
82.0074 63
89.0397 999
91.0192 37
93.0346 485
95.0125 34
103.0186 51
104.0265 67
105.0347 706
107.014 207
109.0303 38
121.0292 272
131.0141 38
133.0288 415
149.0237 176
177.0188 90
END IONS

BEGIN IONS
TITLE=msLevel NA; retentionTime ; scanNum 
CHARGE=
SMILES=C[C@H]1[C@@H]([C@H]([C@H]([C@@H](O1)OC2=CC(=C3C(=C2)OC(=C(C3=O)O[C@H]4[C@@H]([C@H]([C@@H]([C@H](O4)CO)O)O)O)C5=CC(=C(C=C5)O)O)O)O)O)O
IONMODE=negative
ADDUCT=[M-H]-
INSTRUMENT_TYPE=Q-Tof
PRECURSOR_MZ=609.14556
SOURCE=Riken-respect-PT211750.txt
FORMULA=C27H30O16
COMPOUND_NAME=Quercetin-3-O-b-glucopyranosyl-7-O-a-rhamnopyranoside
151.0034 30
255.0307 24
271.0249 277
272.0294 30
299.0197 817
300.0261 149
301.0363 383
302.0391 41
446.0865 411
447.0937 245
448.098 30
463.0895 107
609.1456 999
610.1531 176
END IONS

BEGIN IONS
TITLE=msLevel NA; retentionTime ; scanNum 
CHARGE=
SMILES=C1=CC(=CN=C1)O
IONMODE=negative
ADDUCT=[M-H]-
INSTRUMENT_TYPE=Q-Tof
PRECURSOR_MZ=94.02931
SOURCE=Riken-respect-PT207640.txt
FORMULA=C5H5NO
COMPOUND_NAME=3-Hydroxypyridine
66.0355 27
94.0293 999
END IONS

BEGIN IONS
TITLE=msLevel NA; retentionTime ; scanNum 
CHARGE=
SMILES=C(CO)[C@@H](C(=O)O)N
IONMODE=positive
ADDUCT=[M+H]+
INSTRUMENT_TYPE=Q-Tof
PRECURSOR_MZ=120.06604
SOURCE=Riken-respect-PT106280.txt
FORMULA=C4H9NO3
COMPOUND_NAME=L-Homoserine
74.0604 999
120.066 267
END IONS

BEGIN IONS
TITLE=msLevel NA; retentionTime ; scanNum 
CHARGE=
SMILES=CN1C=NC(=N)C2=C1N=CN2
IONMODE=positive
ADDUCT=[M+H]+
INSTRUMENT_TYPE=Q-Tof
PRECURSOR_MZ=150.07794
SOURCE=Riken-respect-PT101060.txt
FORMULA=C6H7N5
COMPOUND_NAME=3-Methyladenine
149.9734 13
150.0779 999
END IONS

BEGIN IONS
TITLE=msLevel NA; retentionTime ; scanNum 
CHARGE=
SMILES=C([C@H]([C@@H](C=O)O)O)O
IONMODE=positive
ADDUCT=[M+H]+
INSTRUMENT_TYPE=Q-Tof
PRECURSOR_MZ=121.05006
SOURCE=Riken-respect-PT112020.txt
FORMULA=C4H8O4
COMPOUND_NAME=D(-)-Threose
77.0297 436
91.0425 393
93.0575 999
121.0501 272
END IONS

BEGIN IONS
TITLE=msLevel NA; retentionTime ; scanNum 
CHARGE=
SMILES=C[C@H]1[C@@H]([C@H]([C@H]([C@@H](O1)OC[C@@H]2[C@H]([C@@H]([C@H]([C@@H](O2)OC3=CC4=C(C=C(C=C4[O+]=C3C5=CC(=C(C=C5)O)O)O)O)O)O)O)O)O)O.[Cl-]
IONMODE=negative
ADDUCT=[M-2H]-
INSTRUMENT_TYPE=Q-Tof
PRECURSOR_MZ=593.15066
SOURCE=Riken-respect-PT204163.txt
FORMULA=C27H31O15
COMPOUND_NAME=Keracyanin Chloride
125.0253 54
147.0095 23
257.0472 19
283.0271 38
284.0344 999
285.0423 561
299.0586 61
593.1506 20
END IONS

BEGIN IONS
TITLE=msLevel NA; retentionTime ; scanNum 
CHARGE=
SMILES=C/C(=C\CNC1=C2C(=NC=N1)N(C=N2)[C@H]3[C@@H]([C@@H]([C@H](O3)CO)O)O)/CO
IONMODE=negative
ADDUCT=[M-H]-
INSTRUMENT_TYPE=Q-Tof
PRECURSOR_MZ=350.14646
SOURCE=Riken-respect-PT203630.txt
FORMULA=C15H21N5O5
COMPOUND_NAME=trans-Zeatin-riboside
107.036 80
133.0396 96
134.0469 999
200.0946 63
218.1049 424
266.0894 294
350.1465 198
END IONS

BEGIN IONS
TITLE=msLevel NA; retentionTime ; scanNum 
CHARGE=
SMILES=COC1=CC(=CC(=C1O)OC)/C=C/C(=O)O
IONMODE=negative
ADDUCT=[M-H]-
INSTRUMENT_TYPE=Q-Tof
PRECURSOR_MZ=223.06065
SOURCE=Riken-respect-PT210880.txt
FORMULA=C11H12O5
COMPOUND_NAME=Sinapic acid
93.0364 815
121.031 822
135.0472 168
149.0258 874
163.0419 224
164.0498 932
165.0217 216
179.0738 173
193.0166 868
208.0402 999
223.0607 910
END IONS

BEGIN IONS
TITLE=msLevel NA; retentionTime ; scanNum 
CHARGE=
SMILES=CCCCCCCCCCCC(=O)OC[C@H](COP(=O)([O-])OCC[N+](C)(C)C)O
IONMODE=positive
ADDUCT=[M+H]+
INSTRUMENT_TYPE=Q-Tof
PRECURSOR_MZ=440.27768
SOURCE=Riken-respect-PT108130.txt
FORMULA=C20H42NO7P
COMPOUND_NAME=Phosphocholine,1-Lauroyl-2-Hydroxy-sn-Glycero-3-
86.0998 518
104.1109 772
125.0051 362
184.078 999
422.2807 129
440.2777 452
END IONS

BEGIN IONS
TITLE=msLevel NA; retentionTime ; scanNum 
CHARGE=
SMILES=C1=NC(=C2C(=N1)N(C=N2)[C@H]3[C@@H]([C@@H]([C@H](O3)COP(=O)(O)O)O)O)N
IONMODE=positive
ADDUCT=[M+H]+
INSTRUMENT_TYPE=Q-Tof
PRECURSOR_MZ=348.07088
SOURCE=Riken-respect-PT101100.txt
FORMULA=C10H14N5O7P
COMPOUND_NAME=Adenosine-5'-monophosphate sodium salt
136.0636 204
348.0709 999
END IONS

BEGIN IONS
TITLE=msLevel NA; retentionTime ; scanNum 
CHARGE=
SMILES=C1=CC=C2C(=C1)C(=CN2)C[C@@H](C(=O)O)N
IONMODE=positive
ADDUCT=[M+H]+
INSTRUMENT_TYPE=Q-Tof
PRECURSOR_MZ=205.09767
SOURCE=Riken-respect-PT100550.txt
FORMULA=C11H12N2O2
COMPOUND_NAME=L-Tryptophane
188.0725 241
205.0977 999
END IONS

BEGIN IONS
TITLE=msLevel NA; retentionTime ; scanNum 
CHARGE=
SMILES=
IONMODE=negative
ADDUCT=[M-H]-
INSTRUMENT_TYPE=Q-Tof
PRECURSOR_MZ=258.0379
SOURCE=Riken-respect-PT201190.txt
FORMULA=C6H14NO8P
COMPOUND_NAME=D-Glucosamine-6-phosphate sodium salt
78.9596 689
96.9694 999
199.0013 113
258.0379 245
END IONS

BEGIN IONS
TITLE=msLevel NA; retentionTime ; scanNum 
CHARGE=
SMILES=C1C(C(C(C(O1)OC2=CC3=C(C=C(C=C3[O+]=C2C4=CC(=C(C=C4)O)O)O)O)O)O)O.[Cl-]
IONMODE=positive
ADDUCT=[M]+
INSTRUMENT_TYPE=Q-Tof
PRECURSOR_MZ=419.09779
SOURCE=Riken-respect-PT112140.txt
FORMULA=C20H19O10
COMPOUND_NAME=Cyanidin-3-O-alpha-arabinopyranoside
287.0565 999
419.0978 118
END IONS

BEGIN IONS
TITLE=msLevel NA; retentionTime ; scanNum 
CHARGE=
SMILES=C(CC(=O)N[C@@H](CSSC[C@@H](C(=O)NCC(=O)O)NC(=O)CC[C@@H](C(=O)O)N)C(=O)NCC(=O)O)[C@@H](C(=O)O)N
IONMODE=positive
ADDUCT=[M+H]+
INSTRUMENT_TYPE=Q-Tof
PRECURSOR_MZ=613.15976
SOURCE=Riken-respect-PT102353.txt
FORMULA=C20H32N6O12S2
COMPOUND_NAME=Glutathione (oxidized form)
484.1136 72
612.8618 51
612.9628 71
613.1598 999
END IONS

BEGIN IONS
TITLE=msLevel NA; retentionTime ; scanNum 
CHARGE=
SMILES=C1CCNC(C1)C(=O)O
IONMODE=positive
ADDUCT=[M+H]+
INSTRUMENT_TYPE=Q-Tof
PRECURSOR_MZ=130.08677
SOURCE=Riken-respect-PT110970.txt
FORMULA=C6H11NO2
COMPOUND_NAME=DL-Pipecolinic acid
84.0814 999
130.0868 380
END IONS

BEGIN IONS
TITLE=msLevel NA; retentionTime ; scanNum 
CHARGE=
SMILES=C1=CN(C(=O)NC1=O)[C@H]2[C@@H]([C@@H]([C@H](O2)COP(=O)(O)OP(=O)(O)O[C@@H]3[C@@H]([C@H]([C@@H]([C@H](O3)CO)O)O)O)O)O
IONMODE=negative
ADDUCT=[M-H]-
INSTRUMENT_TYPE=Q-Tof
PRECURSOR_MZ=565.04722
SOURCE=Riken-respect-PT207250.txt
FORMULA=C15H24N2O17P2
COMPOUND_NAME=UDP-glucose Disodium Salt
78.9607 718
96.9709 478
158.9265 222
241.0142 194
323.0306 999
565.0472 901
END IONS

BEGIN IONS
TITLE=msLevel NA; retentionTime ; scanNum 
CHARGE=
SMILES=C1=CC(=CC=C1C2=CC(=O)C3=C(C=C(C=C3O2)O)O)O
IONMODE=positive
ADDUCT=[M+H]+
INSTRUMENT_TYPE=Q-Tof
PRECURSOR_MZ=271.06062
SOURCE=Riken-respect-PT103930.txt
FORMULA=C15H10O5
COMPOUND_NAME=Apigenin
91.0555 63
119.0497 76
153.0195 173
271.0606 999
END IONS

BEGIN IONS
TITLE=msLevel NA; retentionTime ; scanNum 
CHARGE=
SMILES=CC(C)(C(=O)O)N
IONMODE=negative
ADDUCT=[M-H]-
INSTRUMENT_TYPE=Q-Tof
PRECURSOR_MZ=102.05553
SOURCE=Riken-respect-PT203750.txt
FORMULA=C4H9NO2
COMPOUND_NAME=alpha-Aminoisobutyric acid2-Aminoisobutyric acid
102.0555 999
END IONS

BEGIN IONS
TITLE=msLevel NA; retentionTime ; scanNum 
CHARGE=
SMILES=C1=CN=CC=C1C(=O)O
IONMODE=positive
ADDUCT=[M+H]+
INSTRUMENT_TYPE=Q-Tof
PRECURSOR_MZ=124.03983
SOURCE=Riken-respect-PT102623.txt
FORMULA=C6H5NO2
COMPOUND_NAME=Isonicotinic acid
78.035 240
79.0419 416
80.0498 999
96.0452 589
124.0398 446
END IONS

BEGIN IONS
TITLE=msLevel NA; retentionTime ; scanNum 
CHARGE=
SMILES=CC(=CCC[C@@](C)([C@H]1CC[C@@]2([C@@H]1[C@@H](C[C@H]3[C@]2(CC[C@@H]4[C@@]3(CC[C@@H](C4(C)C)O[C@H]5[C@@H]([C@H]([C@@H]([C@H](O5)CO)O)O)O[C@H]6[C@@H]([C@H]([C@@H]([C@H](O6)CO)O)O)O)C)C)O)C)O[C@H]7[C@@H]([C@H]([C@@H]([C@H](O7)CO[C@H]8[C@@H]([C@H]([C@@H](CO8)O)O)O)O)O)O)C
IONMODE=positive
COLLISION_ENERGY=6->10V
ADDUCT=[M+H]+
INSTRUMENT_TYPE=Q-TOF
PRECURSOR_MZ=1079.6011
SOURCE=Riken-respect-PM007909.txt
FORMULA=C53H90O22
COMPOUND_NAME=Ginsenoside Rb3
INSTRUMENT=QTOF Premier
623.4528 35
785.5028 100
917.5489 68
947.5543 32
1043.6021 27
END IONS

BEGIN IONS
TITLE=msLevel NA; retentionTime ; scanNum 
CHARGE=
SMILES=CC(C)(CO)[C@H](C(=O)NCCC(=O)O)O
IONMODE=negative
ADDUCT=[M-H]-
INSTRUMENT_TYPE=Q-Tof
PRECURSOR_MZ=218.10287
SOURCE=Riken-respect-PT206370.txt
FORMULA=C9H17NO5
COMPOUND_NAME=Sodium pantothenate
71.0153 94
71.0514 275
88.041 999
99.0458 95
146.0824 625
218.1029 518
END IONS

BEGIN IONS
TITLE=msLevel NA; retentionTime ; scanNum 
CHARGE=
SMILES=C(CCN)C[C@@H](C(=O)O)N
IONMODE=positive
ADDUCT=[M+H]+
INSTRUMENT_TYPE=Q-Tof
PRECURSOR_MZ=147.11332
SOURCE=Riken-respect-PT102810.txt
FORMULA=C6H14N2O2
COMPOUND_NAME=L-Lysine monohydrochloride
84.0807 999
130.0865 322
147.1133 88
END IONS

BEGIN IONS
TITLE=msLevel NA; retentionTime ; scanNum 
CHARGE=
SMILES=CCN1CCN(C(=O)C1=O)C(=O)N[C@H](C2=CC=CC=C2)C(=O)N[C@H]3[C@@H]4N(C3=O)[C@H](C(S4)(C)C)C(=O)O
IONMODE=negative
ADDUCT=[M-H]-
INSTRUMENT_TYPE=Q-Tof
PRECURSOR_MZ=516.15531
SOURCE=Riken-respect-PT203220.txt
FORMULA=C23H27N5O7S
COMPOUND_NAME=Piperacillin sodium salt
71.9925 103
190.0334 92
233.0395 999
270.1241 59
330.0934 519
516.1553 60
END IONS

BEGIN IONS
TITLE=msLevel NA; retentionTime ; scanNum 
CHARGE=
SMILES=CCSCC[C@@H](C(=O)O)N
IONMODE=positive
ADDUCT=[M+H]+
INSTRUMENT_TYPE=Q-Tof
PRECURSOR_MZ=164.0745
SOURCE=Riken-respect-PT112380.txt
FORMULA=C6H13NO2S
COMPOUND_NAME=L-Ethionine
56.0511 161
73.0124 105
74.0249 145
74.0612 108
75.0275 999
101.0431 92
102.0557 386
118.0692 849
147.0479 893
164.0745 303
END IONS
