BEGIN IONS
SYNON=N-[(1S)-1-(4-methoxy-6-oxopyran-2-yl)-2-phenylethyl]acetamide
INCHIKEY=VFMQMACUYWGDOJ-AWEZNQCLSA-N
INCHI=InChI=1S/C16H17NO4/c1-11(18)17-14(8-12-6-4-3-5-7-12)15-9-13(20-2)10-16(19)21-15/h3-7,9-10,14H,8H2,1-2H3,(H,17,18)/t14-/m0/s1
SMILES=CC(=O)N[C@@H](CC1=CC=CC=C1)C2=CC(=CC(=O)O2)OC
INSTRUMENT_TYPE=LC-ESI-ITFT
INSTRUMENT=Q-Exactive Orbitrap Thermo Scientific
COLLISION_ENERGY=30(NCE)
FORMULA=C16H17NO4
PARENT=288.1225
SPLASH=splash10-004j-1940000000-b1bd14eb30f6afd2739e
NUM_PEAKS=8
COMPOUND_NAME=Pyrophen
SPECTRUM_ID=MSBNK-AAFC-AC000854
ADDUCT=[M+H]+
MS_LEVEL=MS2
PRECURSOR_MZ=288.1225
IONMODE=positive
NOMINAL_MASS=287
PARENT_MASS=287.11575
91.0542 245.0
125.0233 999.0
154.0499 80.0
155.0577 355.0
185.0961 349.0
200.107 45.0
229.0859 142.0
246.1125 734.0
END IONS

BEGIN IONS
SYNON=(2E,11S)-15,17-dihydroxy-11-methyl-12-oxabicyclo[12.4.0]octadeca-1(14),2,15,17-tetraene-7,13-dione
INCHIKEY=MBMQEIFVQACCCH-QBODLPLBSA-N
INCHI=InChI=1S/C18H22O5/c1-12-6-5-9-14(19)8-4-2-3-7-13-10-15(20)11-16(21)17(13)18(22)23-12/h3,7,10-12,20-21H,2,4-6,8-9H2,1H3/b7-3+/t12-/m0/s1
SMILES=C[C@H]1CCCC(=O)CCC/C=C/C2=CC(=CC(=C2C(=O)O1)O)O
INSTRUMENT_TYPE=LC-ESI-ITFT
INSTRUMENT=Q-Exactive Orbitrap Thermo Scientific
COLLISION_ENERGY=50(NCE)
FORMULA=C18H22O5
PARENT=319.1535
SPLASH=splash10-000i-2930000000-5f23d1f8df586bd436be
NUM_PEAKS=72
COMPOUND_NAME=Zearalenone
SPECTRUM_ID=MSBNK-AAFC-AC000292
ADDUCT=[M+H]+
MS_LEVEL=MS2
PRECURSOR_MZ=319.1535
IONMODE=positive
NOMINAL_MASS=318
PARENT_MASS=318.14672
55.0185 114.0
67.0542 76.0
68.9971 40.0
69.0699 838.0
71.0491 32.0
79.0542 62.0
81.0699 55.0
83.0491 40.0
85.0648 122.0
91.0542 94.0
93.0699 51.0
95.0491 32.0
95.0855 56.0
97.0648 237.0
105.0699 79.0
107.0855 47.0
115.0542 53.0
117.0699 81.0
119.0855 59.0
123.0441 103.0
125.0961 45.0
129.0699 111.0
131.0855 133.0
133.0648 40.0
141.0699 207.0
145.0648 39.0
147.0441 70.0
147.0804 64.0
149.0597 68.0
157.0648 453.0
159.0804 78.0
160.0519 68.0
161.0597 314.0
163.039 60.0
163.0754 56.0
165.0182 130.0
169.0648 119.0
173.0597 98.0
175.039 214.0
175.0754 356.0
177.0546 128.0
177.091 108.0
185.0597 999.0
187.0754 895.0
189.0546 481.0
197.0597 63.0
199.0754 106.0
201.091 77.0
203.0703 802.0
205.0495 75.0
205.0859 122.0
211.0754 42.0
213.0546 159.0
213.091 123.0
214.0624 37.0
215.0703 112.0
215.1067 43.0
217.0859 41.0
223.0754 54.0
225.091 73.0
226.0624 33.0
227.0703 121.0
228.0781 36.0
229.0859 91.0
231.0652 55.0
241.0859 89.0
241.1223 36.0
243.1016 41.0
250.0988 46.0
255.138 39.0
265.1223 86.0
283.1329 44.0
END IONS

BEGIN IONS
INCHIKEY=GIYROBMIPLLHQE-OQLLNIDSSA-N
INCHI=InChI=1S/C22H23N5O4/c1-4-21(2,3)22(14-7-5-6-8-17(14)27(31)20(22)30)10-16-19(29)25-15(18(28)26-16)9-13-11-23-12-24-13/h4-9,11-12,16,31H,1,10H2,2-3H3,(H,23,24)(H,25,29)(H,26,28)/b15-9+
SMILES=CC(C=C)(C1(C(N(O)C2=CC=CC=C12)=O)CC3C(N/C(C(N3)=O)=C/C4=CN=CN4)=O)C
INSTRUMENT_TYPE=LC-ESI-ITFT
INSTRUMENT=Q-Exactive Orbitrap Thermo Scientific
COLLISION_ENERGY=30(NCE)
FORMULA=C22H23N5O4
PARENT=422.1817
SPLASH=splash10-0006-0900000000-7c863a67fce23b8374b5
NUM_PEAKS=1
COMPOUND_NAME=Roquefortine M
SPECTRUM_ID=MSBNK-AAFC-AC000928
ADDUCT=[M+H]+
MS_LEVEL=MS2
PRECURSOR_MZ=422.1817
IONMODE=positive
NOMINAL_MASS=421
PARENT_MASS=421.17499
192.0642 999.0
END IONS

BEGIN IONS
SYNON=(1S,3R,8Z,10R)-3-methyl-4,11-dioxabicyclo[8.1.0]undec-8-ene-5,7-dione
INCHIKEY=MXRJZFNJVFPSQN-NQRYBKARSA-N
INCHI=InChI=1S/C10H12O4/c1-6-4-9-8(14-9)3-2-7(11)5-10(12)13-6/h2-3,6,8-9H,4-5H2,1H3/b3-2-/t6-,8-,9+/m1/s1
SMILES=C[C@@H]1C[C@H]2[C@H](O2)/C=C\C(=O)CC(=O)O1
INSTRUMENT_TYPE=LC-ESI-ITFT
INSTRUMENT=Q-Exactive Orbitrap Thermo Scientific
COLLISION_ENERGY=10(NCE)
FORMULA=C10H12O4
PARENT=197.0803
SPLASH=splash10-0a4i-0900000000-6881f47b296a28ed74f6
NUM_PEAKS=4
COMPOUND_NAME=Decarestrictine F
SPECTRUM_ID=MSBNK-AAFC-AC000767
ADDUCT=[M+H]+
MS_LEVEL=MS2
PRECURSOR_MZ=197.0803
IONMODE=positive
NOMINAL_MASS=196
PARENT_MASS=196.07355
85.0284 54.0
137.0597 54.0
155.0703 999.0
197.0808 323.0
END IONS

BEGIN IONS
INCHIKEY=HNMWDXUKPJZOQD-XPBDJYBLSA-N
INCHI=InChI=1S/C18H16O9/c1-18-5-6-11(8(26-18)4-10(27-18)17(23)24)16(22)12-7(19)3-9(25-2)15(21)13(12)14(6)20/h3,8,10,20,22H,4-5H2,1-2H3,(H,23,24)/t8?,10-,18?/m1/s1
SMILES=CC12CC3=C(C4=C(C(=O)C=C(C4=O)OC)C(=C3C(O1)C[C@@H](O2)C(=O)O)O)O
INSTRUMENT_TYPE=LC-ESI-ITFT
INSTRUMENT=Q-Exactive Orbitrap Thermo Scientific
COLLISION_ENERGY=20(NCE)
FORMULA=C18H16O9
PARENT=377.0861
SPLASH=splash10-1170-0039000000-77e8c73c3295f3178f01
NUM_PEAKS=16
COMPOUND_NAME=Isomarticin
SPECTRUM_ID=MSBNK-AAFC-AC000161
ADDUCT=[M+H]+
MS_LEVEL=MS2
PRECURSOR_MZ=377.0861
IONMODE=positive
NOMINAL_MASS=376
PARENT_MASS=376.07941
245.0444 492.0
253.0495 56.0
271.0601 324.0
285.0757 534.0
287.055 661.0
289.0707 86.0
299.055 178.0
302.0785 707.0
303.0863 843.0
313.0707 999.0
315.0863 338.0
317.0656 534.0
331.0812 155.0
341.0656 732.0
359.0761 984.0
377.0867 961.0
END IONS

BEGIN IONS
SYNON=[(6aR,9S,10R,10aR)-7,9-dimethyl-6,6a,8,9,10,10a-hexahydro-4H-indolo[4,3-fg]quinoline-10-yl] acetate
INCHIKEY=GJSSYQDXZLZOLR-QMHBMSAFSA-N
INCHI=InChI=1S/C18H22N2O2/c1-10-9-20(3)15-7-12-8-19-14-6-4-5-13(16(12)14)17(15)18(10)22-11(2)21/h4-6,8,10,15,17-19H,7,9H2,1-3H3/t10-,15+,17+,18+/m0/s1
SMILES=C[C@H]1CN([C@@H]2CC3=CNC4=CC=CC(=C34)[C@H]2[C@@H]1OC(=O)C)C
INSTRUMENT_TYPE=LC-ESI-ITFT
INSTRUMENT=Q-Exactive Orbitrap Thermo Scientific
COLLISION_ENERGY=30(NCE)
FORMULA=C18H22N2O2
PARENT=299.1749
SPLASH=splash10-000b-0090000000-61fb8ffc68987b8be791
NUM_PEAKS=6
COMPOUND_NAME=Roquefortine A
SPECTRUM_ID=MSBNK-AAFC-AC000552
ADDUCT=[M+H]+
MS_LEVEL=MS2
PRECURSOR_MZ=299.1749
IONMODE=positive
NOMINAL_MASS=298
PARENT_MASS=298.16813
144.0808 37.0
168.0808 32.0
196.1121 82.0
208.1121 54.0
239.1543 877.0
299.1754 999.0
END IONS

BEGIN IONS
SYNON=(3alpha,7beta,12epsilon)-7,15-Dihydroxy-8-oxo-12,13-epoxytrichothec-9-en-3-yl beta-D-glucopyranoside
INCHIKEY=PUMXWMGECQIOGB-SMSDQXDJSA-N
INCHI=InChI=1S/C21H30O11/c1-8-3-11-20(6-23,16(28)12(8)24)19(2)4-9(17(32-11)21(19)7-29-21)30-18-15(27)14(26)13(25)10(5-22)31-18/h3,9-11,13-18,22-23,25-28H,4-7H2,1-2H3/t9-,10-,11-,13-,14+,15-,16-,17-,18-,19-,20-,21+/m1/s1
SMILES=CC1=C[C@@H]2[C@]([C@@H](C1=O)O)([C@]3(C[C@H]([C@H]([C@@]34CO4)O2)O[C@H]5[C@@H]([C@H]([C@@H]([C@H](O5)CO)O)O)O)C)CO
INSTRUMENT_TYPE=LC-APCI-ITFT
INSTRUMENT=Q-Exactive Orbitrap Thermo Scientific
COLLISION_ENERGY=30(NCE)
FORMULA=C21H30O11
PARENT=459.1855
SPLASH=splash10-0012-1590000000-ef297936e2b8381dffa3
NUM_PEAKS=49
COMPOUND_NAME=Deoxynivalenol-3-glucoside
SPECTRUM_ID=MSBNK-AAFC-AC000364
ADDUCT=[M+H]+
MS_LEVEL=MS2
PRECURSOR_MZ=459.1855
IONMODE=positive
NOMINAL_MASS=458
PARENT_MASS=458.17879
69.0342 159.0
79.0542 41.0
81.0707 37.0
85.0294 312.0
93.0699 33.0
95.0491 44.0
97.0284 31.0
97.0648 90.0
99.0441 37.0
107.0491 46.0
109.0284 93.0
109.0648 139.0
121.0648 81.0
125.0597 326.0
127.039 43.0
137.0597 297.0
147.0804 37.0
153.0546 86.0
159.0804 115.0
159.1168 43.0
161.0597 76.0
161.0961 46.0
165.091 171.0
173.0961 148.0
175.0754 373.0
175.1118 84.0
177.091 242.0
185.0961 113.0
187.0754 32.0
187.1118 196.0
189.091 494.0
191.1067 34.0
197.0961 35.0
201.091 171.0
203.1067 640.0
205.0859 79.0
213.091 287.0
215.1067 157.0
217.1223 39.0
219.1016 580.0
231.1016 999.0
233.1172 91.0
243.1042 42.0
249.1121 981.0
251.1278 220.0
261.1121 337.0
267.1227 36.0
279.1227 181.0
297.1333 546.0
END IONS

BEGIN IONS
INCHIKEY=UQCSETXJXJTMKO-UMURLBKASA-N
INCHI=InChI=1S/C34H59N3O9/c1-16-22(12)25-34(43)46-27(20(8)9)30(39)36(14)23(17(2)3)32(41)44-26(19(6)7)29(38)35(13)24(18(4)5)33(42)45-28(21(10)11)31(40)37(25)15/h17-28H,16H2,1-15H3/t22-,23-,24-,25-,26+,27+,28+/m0/s1
SMILES=CC[C@H](C)[C@H]1C(=O)O[C@@H](C(=O)N([C@H](C(=O)O[C@@H](C(=O)N([C@H](C(=O)O[C@@H](C(=O)N1C)C(C)C)C(C)C)C)C(C)C)C(C)C)C)C(C)C
INSTRUMENT_TYPE=LC-ESI-ITFT
INSTRUMENT=Q-Exactive Orbitrap Thermo Scientific
COLLISION_ENERGY=35(NCE)
FORMULA=C34H59N3O9
PARENT=676.4138
SPLASH=splash10-004i-0002019000-0ac287817b30a81a91d5
NUM_PEAKS=7
COMPOUND_NAME=Enniatin B1
SPECTRUM_ID=MSBNK-AAFC-AC000469
ADDUCT=[M+Na]+
MS_LEVEL=MS2
PRECURSOR_MZ=676.4138
IONMODE=positive
NOMINAL_MASS=653
PARENT_MASS=653.42513
218.1135 34.0
336.1765 174.0
350.1922 82.0
463.2752 31.0
549.3146 60.0
563.3303 128.0
676.4144 999.0
END IONS

BEGIN IONS
SYNON=(3beta,4alpha,7alpha)-3,7,15-Trihydroxy-8-oxo-12,13-epoxytrichothec-9-en-4-yl acetate
INCHIKEY=XGCUCFKWVIWWNW-CAYGJDLQSA-N
INCHI=InChI=1S/C17H22O8/c1-7-4-9-16(5-18,12(22)10(7)20)15(3)13(24-8(2)19)11(21)14(25-9)17(15)6-23-17/h4,9,11-14,18,21-22H,5-6H2,1-3H3/t9-,11-,12-,13-,14-,15-,16-,17+/m1/s1
SMILES=CC1=C[C@@H]2[C@]([C@@H](C1=O)O)([C@]3([C@@H]([C@H]([C@H]([C@@]34CO4)O2)O)OC(=O)C)C)CO
INSTRUMENT_TYPE=LC-ESI-ITFT
INSTRUMENT=Q-Exactive Orbitrap Thermo Scientific
COLLISION_ENERGY=35(NCE)
FORMULA=C17H22O8
PARENT=355.1382
SPLASH=splash10-004r-0930000000-900daeb226eca52e4aed
NUM_PEAKS=65
COMPOUND_NAME=Fusarenone-X
SPECTRUM_ID=MSBNK-AAFC-AC000143
ADDUCT=[M+H]+
MS_LEVEL=MS2
PRECURSOR_MZ=355.1382
IONMODE=positive
NOMINAL_MASS=354
PARENT_MASS=354.13145
69.0335 69.0
71.0491 90.0
79.0542 36.0
83.0491 34.0
85.0284 57.0
95.0491 62.0
97.0648 51.0
99.0441 216.0
107.0491 79.0
109.0648 120.0
119.0855 90.0
121.0648 75.0
123.0441 161.0
125.0597 163.0
131.0855 81.0
135.0804 45.0
137.0597 999.0
141.0546 56.0
143.0855 43.0
145.0648 33.0
145.1012 58.0
147.0804 190.0
149.0597 89.0
149.0961 64.0
151.039 45.0
151.0754 42.0
153.0546 97.0
155.0855 33.0
157.1012 43.0
159.0804 249.0
161.0597 120.0
161.0961 66.0
163.0754 217.0
165.091 226.0
171.0804 60.0
173.0961 149.0
175.0754 864.0
175.1079 31.0
177.0546 38.0
177.091 346.0
179.0703 54.0
183.0804 70.0
185.0961 107.0
187.0754 178.0
188.0832 34.0
189.091 241.0
191.0703 148.0
191.1067 45.0
193.0859 50.0
199.0754 82.0
201.091 472.0
203.0703 35.0
203.1067 70.0
205.0859 438.0
211.0754 107.0
213.091 138.0
214.0624 54.0
217.0859 219.0
219.1016 94.0
229.0859 593.0
231.1016 84.0
241.0859 35.0
247.0965 220.0
259.0965 68.0
277.107 36.0
END IONS

BEGIN IONS
SYNON=5,6-Dihydroxy-8-methoxy-2-methyl-benzo[g]chromen-4-one
INCHIKEY=FPNKCZKRICBAKG-UHFFFAOYSA-N
INCHI=InChI=1S/C15H12O5/c1-7-3-10(16)14-12(20-7)5-8-4-9(19-2)6-11(17)13(8)15(14)18/h3-6,17-18H,1-2H3
SMILES=CC1=CC(=O)C2=C(O1)C=C3C=C(C=C(C3=C2O)O)OC
INSTRUMENT_TYPE=LC-ESI-ITFT
INSTRUMENT=Q-Exactive Orbitrap Thermo Scientific
COLLISION_ENERGY=20(NCE)
FORMULA=C15H12O5
PARENT=273.0752
SPLASH=splash10-00di-0090000000-ff0e7b4f08445a7e3049
NUM_PEAKS=1
COMPOUND_NAME=Rubrofusarin
SPECTRUM_ID=MSBNK-AAFC-AC000705
ADDUCT=[M+H]+
MS_LEVEL=MS2
PRECURSOR_MZ=273.0752
IONMODE=positive
NOMINAL_MASS=272
PARENT_MASS=272.06846
273.0757 999.0
END IONS

BEGIN IONS
INCHIKEY=KEEQQEKLEZRLDS-JULYGXFESA-N
INCHI=InChI=1S/C29H38O8/c1-18-9-11-28-16-34-26(32)14-19(2)10-12-33-21(20(3)30)7-5-6-8-25(31)37-22-15-24(36-23(28)13-18)29(17-35-29)27(22,28)4/h5-8,13-14,20-24,30H,9-12,15-17H2,1-4H3/b7-5+,8-6-,19-14+/t20-,21-,22+,23+,24+,27+,28+,29-/m0/s1
SMILES=CC1=C[C@@H]2[C@@]3(CC1)COC(=O)/C=C(/CCO[C@@H](/C=C/C=C\C(=O)O[C@H]4[C@]3([C@]5(CO5)[C@@H](C4)O2)C)[C@H](C)O)\C
INSTRUMENT_TYPE=LC-ESI-ITFT
INSTRUMENT=Q-Exactive Orbitrap Thermo Scientific
COLLISION_ENERGY=20(NCE)
FORMULA=C29H38O8
PARENT=537.2453
SPLASH=splash10-000i-0000090000-c3fc7ead594735c53f67
NUM_PEAKS=1
COMPOUND_NAME=iso-Roridine E
SPECTRUM_ID=MSBNK-AAFC-AC000526
ADDUCT=[M+Na]+
MS_LEVEL=MS2
PRECURSOR_MZ=537.2453
IONMODE=positive
NOMINAL_MASS=514
PARENT_MASS=514.25667
537.2459 999.0
END IONS

BEGIN IONS
SYNON=(3S,6R,9S,12R,15S,18R,21S,24R)-4,10,16,22-tetramethyl-3,9,15,21-tetrakis(2-methylpropyl)-6,12,18,24-tetra(propan-2-yl)-1,7,13,19-tetraoxa-4,10,16,22-tetrazacyclotetracosane-2,5,8,11,14,17,20,23-octone
INCHIKEY=QVZZPLDJERFENQ-NKTUOASPSA-N
INCHI=InChI=1S/C48H84N4O12/c1-25(2)21-33-45(57)61-38(30(11)12)42(54)50(18)35(23-27(5)6)47(59)63-40(32(15)16)44(56)52(20)36(24-28(7)8)48(60)64-39(31(13)14)43(55)51(19)34(22-26(3)4)46(58)62-37(29(9)10)41(53)49(33)17/h25-40H,21-24H2,1-20H3/t33-,34-,35-,36-,37+,38+,39+,40+/m0/s1
SMILES=CC(C)C[C@H]1C(=O)O[C@@H](C(=O)N([C@H](C(=O)O[C@@H](C(=O)N([C@H](C(=O)O[C@@H](C(=O)N([C@H](C(=O)O[C@@H](C(=O)N1C)C(C)C)CC(C)C)C)C(C)C)CC(C)C)C)C(C)C)CC(C)C)C)C(C)C
INSTRUMENT_TYPE=LC-ESI-ITFT
INSTRUMENT=Q-Exactive Orbitrap Thermo Scientific
COLLISION_ENERGY=20(NCE)
FORMULA=C48H84N4O12
PARENT=931.5973
SPLASH=splash10-001i-0000000009-e2e53869e3b1e671968c
NUM_PEAKS=1
COMPOUND_NAME=Bassanolide
SPECTRUM_ID=MSBNK-AAFC-AC000421
ADDUCT=[M+Na]+
MS_LEVEL=MS2
PRECURSOR_MZ=931.5973
IONMODE=positive
NOMINAL_MASS=909
PARENT_MASS=908.60858
931.5978 999.0
END IONS

BEGIN IONS
SYNON=(7aR,10aS)-5-Methoxy-3,4,7a,9,10,10a-hexahydro-1H,12H-furo[3',2':4,5]furo[2,3-h]pyrano[3,4-c]chromene-1,12-dione
INCHIKEY=WPCVRWVBBXIRMA-WNWIJWBNSA-N
INCHI=InChI=1S/C17H14O7/c1-20-9-6-10-12(8-3-5-22-17(8)23-10)14-11(9)7-2-4-21-15(18)13(7)16(19)24-14/h6,8,17H,2-5H2,1H3/t8-,17+/m0/s1
SMILES=COC1=C2C3=C(C(=O)OCC3)C(=O)OC2=C4[C@@H]5CCO[C@@H]5OC4=C1
INSTRUMENT_TYPE=LC-ESI-ITFT
INSTRUMENT=Q-Exactive Orbitrap Thermo Scientific
COLLISION_ENERGY=50(NCE)
FORMULA=C17H14O7
PARENT=331.0807
SPLASH=splash10-06ss-0094000000-415ea5fb9149cefadc1f
NUM_PEAKS=30
COMPOUND_NAME=Aflatoxin G2
SPECTRUM_ID=MSBNK-AAFC-AC000040
ADDUCT=[M+H]+
MS_LEVEL=MS2
PRECURSOR_MZ=331.0807
IONMODE=positive
NOMINAL_MASS=330
PARENT_MASS=330.07393
187.0754 36.0
189.0546 125.0
199.0754 34.0
201.0546 66.0
201.091 152.0
203.0703 33.0
213.091 37.0
214.0624 56.0
215.0703 60.0
216.0781 50.0
217.0859 258.0
226.0624 38.0
227.0703 94.0
229.0495 76.0
229.0859 159.0
241.0859 115.0
242.0574 71.0
243.0652 165.0
245.0808 737.0
257.0444 194.0
257.0808 320.0
269.0808 63.0
270.0523 36.0
275.055 297.0
285.0757 577.0
287.055 59.0
287.0914 45.0
303.0863 197.0
313.0707 803.0
331.0812 999.0
END IONS

BEGIN IONS
SYNON=12'-hydroxy-2'-(1-methylethyl)-5'alpha-(2-methylpropyl)ergotaman-3',6',18-trione
INCHIKEY=YDOTUXAWKBPQJW-NSLWYYNWSA-N
INCHI=InChI=1S/C32H41N5O5/c1-17(2)12-25-29(39)36-11-7-10-26(36)32(41)37(25)30(40)31(42-32,18(3)4)34-28(38)20-13-22-21-8-6-9-23-27(21)19(15-33-23)14-24(22)35(5)16-20/h6,8-9,13,15,17-18,20,24-26,33,41H,7,10-12,14,16H2,1-5H3,(H,34,38)/t20-,24-,25+,26+,31-,32+/m1/s1
SMILES=CC(C)C[C@H]1C(=O)N2CCC[C@H]2[C@]3(N1C(=O)[C@](O3)(C(C)C)NC(=O)[C@H]4CN([C@@H]5CC6=CNC7=CC=CC(=C67)C5=C4)C)O
INSTRUMENT_TYPE=LC-ESI-ITFT
INSTRUMENT=Q-Exactive Orbitrap Thermo Scientific
COLLISION_ENERGY=20(NCE)
FORMULA=C32H41N5O5
PARENT=576.3175
SPLASH=splash10-00or-0092070000-b402ef35030c80fc375c
NUM_PEAKS=9
COMPOUND_NAME=Ergocryptine
SPECTRUM_ID=MSBNK-AAFC-AC000338
ADDUCT=[M+H]+
MS_LEVEL=MS2
PRECURSOR_MZ=576.3175
IONMODE=positive
NOMINAL_MASS=575
PARENT_MASS=575.31077
208.0757 90.0
223.123 121.0
225.1022 129.0
268.1444 999.0
291.1703 80.0
305.1285 164.0
348.1707 195.0
558.3075 163.0
576.318 991.0
END IONS

BEGIN IONS
INCHIKEY=SUVZUTHVKIBYOH-KPZWWZAWSA-N
INCHI=InChI=1S/C21H18N4O2/c1-12-19-24-17-9-5-3-7-15(17)21(27)25(19)18(20(26)23-12)10-13-11-22-16-8-4-2-6-14(13)16/h2-9,11-12,18,22H,10H2,1H3,(H,23,26)/t12-,18+/m0/s1
SMILES=C[C@H]1C2=NC3=CC=CC=C3C(=O)N2[C@@H](C(=O)N1)CC4=CNC5=CC=CC=C54
INSTRUMENT_TYPE=LC-ESI-ITFT
INSTRUMENT=Q-Exactive Orbitrap Thermo Scientific
COLLISION_ENERGY=10(NCE)
FORMULA=C21H18N4O2
PARENT=359.1497
SPLASH=splash10-0a4i-0019000000-83e82ca471df0bdf450a
NUM_PEAKS=4
COMPOUND_NAME=Fumiquinazoline F
SPECTRUM_ID=MSBNK-AAFC-AC000907
ADDUCT=[M+H]+
MS_LEVEL=MS2
PRECURSOR_MZ=359.1497
IONMODE=positive
NOMINAL_MASS=358
PARENT_MASS=358.14297
130.0651 55.0
228.0767 117.0
230.0924 102.0
359.1502 999.0
END IONS

BEGIN IONS
SYNON=(3E,5aS,10bR,11aS)-5a-Methyl-10b-(2-methyl-3-buten-2-yl)-3-{[1-(2-methyl-4-oxo-2-pentanyl)-1H-imidazol-4-yl]methylene}-6,10b,11,11a-tetrahydro-2H-pyrazino[1',2':1,5]pyrrolo[2,3-b]indole-1,4(3H,5aH)-di one
INCHIKEY=IOMOQUZQAXSJJI-MOLGQSPVSA-N
INCHI=InChI=1S/C28H33N5O3/c1-7-26(3,4)28-14-22-23(35)30-21(12-18-15-32(16-29-18)27(5,6)13-17(2)34)24(36)33(22)25(28)31-20-11-9-8-10-19(20)28/h7-12,15-16,22,25,31H,1,13-14H2,2-6H3,(H,30,35)/b21-12-/t22-,25+,28-/m1/s1
SMILES=CC(=O)CC(C)(C)N1C=C(N=C1)/C=C\2/C(=O)N3[C@H](C[C@@]4([C@H]3NC5=CC=CC=C54)C(C)(C)C=C)C(=O)N2
INSTRUMENT_TYPE=LC-ESI-ITFT
INSTRUMENT=Q-Exactive Orbitrap Thermo Scientific
COLLISION_ENERGY=40(NCE)
FORMULA=C28H33N5O3
PARENT=488.2651
SPLASH=splash10-00di-0910000000-51e01077313011376843
NUM_PEAKS=7
COMPOUND_NAME=Roquefortine H
SPECTRUM_ID=MSBNK-AAFC-AC000812
ADDUCT=[M+H]+
MS_LEVEL=MS2
PRECURSOR_MZ=488.2651
IONMODE=positive
NOMINAL_MASS=487
PARENT_MASS=487.25834
173.022 999.0
174.0244 495.0
185.1073 94.0
205.0482 121.0
206.0513 75.0
213.1022 83.0
248.065 64.0
END IONS

BEGIN IONS
SYNON=(3S,6R,9S,12R,15S,18R)-3,9,15-tribenzyl-4,10,16-trimethyl-6,12,18-tri(propan-2-yl)-1,7,13-trioxa-4,10,16-triazacyclooctadecane-2,5,8,11,14,17-hexone
INCHIKEY=GYSCAQFHASJXRS-FFCOJMSVSA-N
INCHI=InChI=1S/C45H57N3O9/c1-28(2)37-40(49)46(7)35(26-32-21-15-11-16-22-32)44(53)56-39(30(5)6)42(51)48(9)36(27-33-23-17-12-18-24-33)45(54)57-38(29(3)4)41(50)47(8)34(43(52)55-37)25-31-19-13-10-14-20-31/h10-24,28-30,34-39H,25-27H2,1-9H3/t34-,35-,36-,37+,38+,39+/m0/s1
SMILES=CC(C)[C@@H]1C(=O)N([C@H](C(=O)O[C@@H](C(=O)N([C@H](C(=O)O[C@@H](C(=O)N([C@H](C(=O)O1)CC2=CC=CC=C2)C)C(C)C)CC3=CC=CC=C3)C)C(C)C)CC4=CC=CC=C4)C
INSTRUMENT_TYPE=LC-ESI-ITFT
INSTRUMENT=Q-Exactive Orbitrap Thermo Scientific
COLLISION_ENERGY=50(NCE)
FORMULA=C45H57N3O9
PARENT=806.3982
SPLASH=splash10-001i-0792000000-9e21e6b605e16f006e31
NUM_PEAKS=12
COMPOUND_NAME=Beauvericin
SPECTRUM_ID=MSBNK-AAFC-AC000582
ADDUCT=[M+Na]+
MS_LEVEL=MS2
PRECURSOR_MZ=806.3982
IONMODE=positive
NOMINAL_MASS=783
PARENT_MASS=783.40948
83.0491 162.0
123.0417 47.0
134.0964 999.0
141.0509 43.0
156.0781 203.0
202.0836 304.0
216.1383 203.0
244.1308 119.0
266.1135 625.0
284.1254 278.0
302.136 46.0
384.1765 406.0
END IONS

BEGIN IONS
SYNON=3-monoacetyldeoxynivalenol
INCHIKEY=ADFIQZBYNGPCGY-HTJQZXIKSA-N
INCHI=InChI=1S/C17H22O7/c1-8-4-11-16(6-18,13(21)12(8)20)15(3)5-10(23-9(2)19)14(24-11)17(15)7-22-17/h4,10-11,13-14,18,21H,5-7H2,1-3H3/t10-,11-,13-,14-,15-,16-,17+/m1/s1
SMILES=CC1=C[C@@H]2[C@]([C@@H](C1=O)O)([C@]3(C[C@H]([C@H]([C@@]34CO4)O2)OC(=O)C)C)CO
INSTRUMENT_TYPE=LC-APCI-ITFT
INSTRUMENT=Q-Exactive Orbitrap Thermo Scientific
COLLISION_ENERGY=20(NCE)
FORMULA=C17H22O7
PARENT=339.1433
SPLASH=splash10-01qi-0291000000-cebb4300e10a9aa67230
NUM_PEAKS=29
COMPOUND_NAME=3-Acetyldeoxynivalenol
SPECTRUM_ID=MSBNK-AAFC-AC000383
ADDUCT=[M+H]+
MS_LEVEL=MS2
PRECURSOR_MZ=339.1433
IONMODE=positive
NOMINAL_MASS=338
PARENT_MASS=338.13654
109.0648 95.0
125.0597 125.0
137.0597 195.0
153.0546 64.0
163.0754 48.0
173.0961 40.0
175.0754 83.0
185.0961 47.0
187.1118 70.0
189.091 143.0
197.0961 54.0
201.091 176.0
203.1067 286.0
205.0859 41.0
213.091 389.0
215.1067 201.0
219.1016 102.0
223.0965 85.0
225.091 39.0
231.1016 999.0
233.1172 56.0
243.1016 179.0
249.1121 129.0
261.1121 286.0
279.1227 433.0
291.1227 49.0
297.1333 236.0
321.1333 244.0
339.1438 572.0
END IONS

BEGIN IONS
INCHIKEY=MIZMDSVSLSIMSC-VYLWARHZSA-N
INCHI=InChI=1S/C33H57N3O9/c1-16(2)22-31(40)43-26(20(9)10)29(38)35(14)24(18(5)6)33(42)45-27(21(11)12)30(39)36(15)23(17(3)4)32(41)44-25(19(7)8)28(37)34(22)13/h16-27H,1-15H3/t22-,23-,24-,25+,26+,27+/m0/s1
SMILES=CC(C)[C@H]1C(=O)O[C@@H](C(=O)N([C@H](C(=O)O[C@@H](C(=O)N([C@H](C(=O)O[C@@H](C(=O)N1C)C(C)C)C(C)C)C)C(C)C)C(C)C)C)C(C)C
INSTRUMENT_TYPE=LC-ESI-ITFT
INSTRUMENT=Q-Exactive Orbitrap Thermo Scientific
COLLISION_ENERGY=30(NCE)
FORMULA=C33H57N3O9
PARENT=662.3982
SPLASH=splash10-03di-0000009000-fd005357465cf11de429
NUM_PEAKS=2
COMPOUND_NAME=Enniatin B
SPECTRUM_ID=MSBNK-AAFC-AC000459
ADDUCT=[M+Na]+
MS_LEVEL=MS2
PRECURSOR_MZ=662.3982
IONMODE=positive
NOMINAL_MASS=639
PARENT_MASS=639.40948
549.3146 56.0
662.3987 999.0
END IONS

BEGIN IONS
INCHIKEY=CPCRJSQNWHCGOP-ZBUYIUKQSA-N
INCHI=InChI=1S/C34H59NO14/c1-5-6-11-21(3)32(49-31(43)19-24(34(46)47)17-29(40)41)27(48-30(42)18-23(33(44)45)16-28(38)39)15-20(2)14-25(36)12-9-7-8-10-13-26(37)22(4)35/h20-27,32,36-37H,5-19,35H2,1-4H3,(H,38,39)(H,40,41)(H,44,45)(H,46,47)/t20-,21+,22+,23?,24?,25+,26-,27-,32+/m0/s1
SMILES=CCCC[C@@H](C)[C@H]([C@H](C[C@@H](C)C[C@@H](CCCCCC[C@@H]([C@@H](C)N)O)O)OC(=O)CC(CC(=O)O)C(=O)O)OC(=O)CC(CC(=O)O)C(=O)O
INSTRUMENT_TYPE=LC-ESI-ITFT
INSTRUMENT=Q-Exactive Orbitrap Thermo Scientific
COLLISION_ENERGY=30(NCE)
FORMULA=C34H59NO14
PARENT=706.4003
SPLASH=splash10-000i-4719000000-ec5f14c8841831b0e5eb
NUM_PEAKS=44
COMPOUND_NAME=Fumonisin B3
SPECTRUM_ID=MSBNK-AAFC-AC000491
ADDUCT=[M+H]+
MS_LEVEL=MS2
PRECURSOR_MZ=706.4003
IONMODE=positive
NOMINAL_MASS=705
PARENT_MASS=705.39354
57.0705 41.0
67.0542 34.0
69.0699 79.0
70.0651 34.0
81.0699 173.0
83.0855 52.0
85.1012 67.0
93.0699 46.0
95.0855 219.0
97.1012 63.0
107.0855 83.0
109.1012 170.0
111.1168 33.0
121.1012 82.0
123.1168 115.0
127.1118 43.0
133.1012 46.0
135.1168 84.0
137.1325 48.0
147.1168 46.0
149.1325 57.0
151.1481 57.0
159.0288 131.0
161.1325 36.0
163.1481 32.0
170.154 100.0
177.1638 41.0
188.1645 92.0
194.1903 63.0
203.1795 57.0
212.2009 41.0
220.206 46.0
238.2139 118.0
256.2244 67.0
301.289 51.0
318.3129 441.0
336.3234 999.0
354.334 279.0
494.3449 44.0
512.3555 63.0
530.3661 36.0
670.3797 42.0
688.3903 73.0
706.4008 38.0
END IONS

BEGIN IONS
SYNON=(7R,11S)-7,15,17-trihydroxy-11-methyl-12-oxabicyclo[12.4.0]octadeca-1(14),15,17-trien-13-one
INCHIKEY=DWTTZBARDOXEAM-GXTWGEPZSA-N
INCHI=InChI=1S/C18H26O5/c1-12-6-5-9-14(19)8-4-2-3-7-13-10-15(20)11-16(21)17(13)18(22)23-12/h10-12,14,19-21H,2-9H2,1H3/t12-,14+/m0/s1
SMILES=C[C@H]1CCC[C@@H](CCCCCC2=CC(=CC(=C2C(=O)O1)O)O)O
INSTRUMENT_TYPE=LC-ESI-ITFT
INSTRUMENT=Q-Exactive Orbitrap Thermo Scientific
COLLISION_ENERGY=20(NCE)
FORMULA=C18H26O5
PARENT=305.1742
SPLASH=splash10-0a4i-0019000000-b8a86e1405c06f883496
NUM_PEAKS=5
COMPOUND_NAME=Zeranol
SPECTRUM_ID=MSBNK-AAFC-AC000643
ADDUCT=[M-H2O+H]+
MS_LEVEL=MS2
PRECURSOR_MZ=305.1742
IONMODE=positive
NOMINAL_MASS=322
PARENT_MASS=322.17803
123.0441 37.0
167.0339 62.0
277.1798 36.0
287.1642 151.0
305.1747 999.0
END IONS

BEGIN IONS
INCHIKEY=SJCPVUVBUQDGKN-VXWIUBPCSA-N
INCHI=InChI=1S/C29H34O10/c1-16-7-9-26-14-34-23(32)22-28(39-22)10-11-35-27(17(2)30,24(28)33)8-5-4-6-21(31)38-18-13-20(37-19(26)12-16)29(15-36-29)25(18,26)3/h4-6,8,12,18-20,22,24,33H,7,9-11,13-15H2,1-3H3/b6-4-,8-5-
SMILES=CC1=CC2C3(CC1)COC(=O)C4C5(O4)CCOC(C5O)(/C=C\C=C/C(=O)OC6C3(C7(CO7)C(C6)O2)C)C(=O)C
INSTRUMENT_TYPE=LC-ESI-ITFT
INSTRUMENT=Q-Exactive Orbitrap Thermo Scientific
COLLISION_ENERGY=55(NCE)
FORMULA=C29H34O10
PARENT=565.2039
SPLASH=splash10-067m-8910000000-0c0a2020f8be42945d77
NUM_PEAKS=43
COMPOUND_NAME=Satratoxin F
SPECTRUM_ID=MSBNK-AAFC-AC000591
ADDUCT=[M+Na]+
MS_LEVEL=MS2
PRECURSOR_MZ=565.2039
IONMODE=positive
NOMINAL_MASS=542
PARENT_MASS=542.21518
54.9316 77.0
55.0553 89.0
55.7132 62.0
55.949 65.0
62.7537 82.0
67.0553 668.0
71.0501 76.0
79.0552 467.0
81.0708 621.0
88.1666 83.0
91.0542 594.0
93.0699 460.0
95.0501 999.0
95.0855 415.0
105.0699 925.0
107.0855 179.0
109.0648 101.0
117.0699 175.0
119.0855 803.0
121.0648 313.0
121.1012 119.0
128.0621 98.0
129.0699 83.0
131.0855 632.0
133.1012 136.0
142.0777 192.0
143.0855 395.0
144.0934 85.0
145.1012 132.0
149.0961 188.0
155.0855 99.0
159.1168 154.0
161.0961 137.0
185.1359 87.0
201.5862 92.0
204.2644 77.0
221.4227 100.0
222.8134 93.0
226.5578 95.0
231.138 111.0
303.6488 87.0
476.4576 95.0
498.3077 86.0
END IONS

BEGIN IONS
SYNON=(3alpha,7beta,12epsilon)-7,15-Dihydroxy-8-oxo-12,13-epoxytrichothec-9-en-3-yl beta-D-glucopyranoside
INCHIKEY=PUMXWMGECQIOGB-SMSDQXDJSA-N
INCHI=InChI=1S/C21H30O11/c1-8-3-11-20(6-23,16(28)12(8)24)19(2)4-9(17(32-11)21(19)7-29-21)30-18-15(27)14(26)13(25)10(5-22)31-18/h3,9-11,13-18,22-23,25-28H,4-7H2,1-2H3/t9-,10-,11-,13-,14+,15-,16-,17-,18-,19-,20-,21+/m1/s1
SMILES=CC1=C[C@@H]2[C@]([C@@H](C1=O)O)([C@]3(C[C@H]([C@H]([C@@]34CO4)O2)O[C@H]5[C@@H]([C@H]([C@@H]([C@H](O5)CO)O)O)O)C)CO
INSTRUMENT_TYPE=LC-APCI-ITFT
INSTRUMENT=Q-Exactive Orbitrap Thermo Scientific
COLLISION_ENERGY=10(NCE)
FORMULA=C21H30O11
PARENT=459.1855
SPLASH=splash10-0002-0090000000-84f4340b34506ff75e15
NUM_PEAKS=8
COMPOUND_NAME=Deoxynivalenol-3-glucoside
SPECTRUM_ID=MSBNK-AAFC-AC000362
ADDUCT=[M+H]+
MS_LEVEL=MS2
PRECURSOR_MZ=459.1855
IONMODE=positive
NOMINAL_MASS=458
PARENT_MASS=458.17879
219.1016 38.0
231.1016 125.0
249.1121 296.0
261.1121 42.0
267.1227 46.0
279.1227 116.0
297.1333 999.0
459.1861 62.0
END IONS

BEGIN IONS
INCHIKEY=GBDGOAVPCDIMFE-SBOZNWLOSA-N
INCHI=InChI=1S/C16H28O4/c1-2-3-4-5-6-13-14-9-7-11-12(17)8-10-15(18)16(11,19-13)20-14/h11-15,17-18H,2-10H2,1H3/t11-,12-,13-,14-,15+,16-/m0/s1
SMILES=CCCCCC[C@H]1[C@@H]2CC[C@H]3[C@H](CC[C@H]([C@]3(O2)O1)O)O
INSTRUMENT_TYPE=LC-ESI-ITFT
INSTRUMENT=Q-Exactive Orbitrap Thermo Scientific
COLLISION_ENERGY=20(NCE)
FORMULA=C16H28O4
PARENT=285.2055
SPLASH=splash10-014j-0690000000-540f57e04e4e512f7da3
NUM_PEAKS=27
COMPOUND_NAME=Koninginin A
SPECTRUM_ID=MSBNK-AAFC-AC000166
ADDUCT=[M+H]+
MS_LEVEL=MS2
PRECURSOR_MZ=285.2055
IONMODE=positive
NOMINAL_MASS=284
PARENT_MASS=284.19877
57.0706 34.0
81.0699 65.0
85.1012 47.0
95.0855 43.0
107.0491 255.0
113.0597 64.0
113.0961 235.0
119.0855 299.0
121.2632 32.0
123.0804 69.0
125.0961 46.0
127.1118 171.0
133.0648 162.0
135.0804 58.0
137.0961 60.0
147.0804 187.0
151.0754 41.0
155.1431 147.0
167.1431 39.0
189.1638 159.0
203.1795 246.0
213.1638 151.0
221.19 181.0
231.1744 454.0
249.1849 999.0
267.1955 969.0
279.6932 40.0
END IONS

BEGIN IONS
SYNON=(3beta,4alpha,12R)-3-Hydroxy-12,13-epoxytrichothec-9-ene-4,15-diyl diacetate
INCHIKEY=AUGQEEXBDZWUJY-ZLJUKNTDSA-N
INCHI=InChI=1S/C19H26O7/c1-10-5-6-18(8-23-11(2)20)13(7-10)26-16-14(22)15(25-12(3)21)17(18,4)19(16)9-24-19/h7,13-16,22H,5-6,8-9H2,1-4H3/t13-,14-,15-,16-,17-,18-,19-/m1/s1
SMILES=CC1=C[C@@H]2[C@](CC1)([C@]3([C@@H]([C@H]([C@H]([C@]34CO4)O2)O)OC(=O)C)C)COC(=O)C
INSTRUMENT_TYPE=LC-ESI-ITFT
INSTRUMENT=Q-Exactive Orbitrap Thermo Scientific
COLLISION_ENERGY=35(NCE)
FORMULA=C19H26O7
PARENT=367.1746
SPLASH=splash10-0a6r-1920000000-a5670a547cf8ae10c214
NUM_PEAKS=80
COMPOUND_NAME=Diacetoxyscirpenol
SPECTRUM_ID=MSBNK-AAFC-AC000123
ADDUCT=[M+H]+
MS_LEVEL=MS2
PRECURSOR_MZ=367.1746
IONMODE=positive
NOMINAL_MASS=366
PARENT_MASS=366.16785
67.0542 44.0
69.0335 68.0
79.0542 124.0
81.0699 300.0
83.0491 36.0
85.0284 37.0
91.0542 73.0
93.0699 265.0
95.0491 283.0
95.0855 148.0
97.0648 250.0
105.0699 999.0
107.0491 124.0
107.0855 338.0
109.0648 280.0
111.0441 40.0
113.0597 227.0
117.0699 67.0
119.0491 42.0
119.0855 170.0
121.0648 345.0
123.0441 65.0
123.0804 516.0
125.0597 404.0
129.0699 90.0
131.0855 264.0
133.0648 68.0
133.1012 135.0
135.0804 68.0
137.0597 87.0
139.0754 50.0
141.0546 48.0
141.0699 61.0
142.0777 82.0
143.0703 58.0
143.0855 295.0
145.0648 64.0
145.1012 274.0
147.0804 125.0
147.1168 104.0
149.0597 42.0
149.0961 46.0
155.0855 140.0
156.0934 52.0
157.1012 373.0
159.0804 164.0
159.1168 360.0
161.0961 204.0
161.1325 34.0
163.1118 99.0
167.0703 31.0
168.0934 134.0
169.1012 133.0
171.0804 43.0
171.1168 242.0
173.0961 151.0
173.1325 298.0
175.1118 252.0
177.1274 44.0
181.1012 97.0
183.1168 441.0
185.0961 55.0
187.0754 33.0
187.1118 227.0
189.1274 105.0
193.1012 89.0
193.1223 38.0
196.0883 70.0
199.1118 474.0
201.1274 535.0
203.1067 40.0
205.1223 67.0
211.1118 229.0
217.1223 221.0
219.138 142.0
229.1223 491.0
247.1329 386.0
265.1434 94.0
289.1434 65.0
307.154 154.0
END IONS

BEGIN IONS
SYNON=(3S,6R,9S,12R,15S,18R,21S,24R)-4,10,16,22-tetramethyl-3,9,15,21-tetrakis(2-methylpropyl)-6,12,18,24-tetra(propan-2-yl)-1,7,13,19-tetraoxa-4,10,16,22-tetrazacyclotetracosane-2,5,8,11,14,17,20,23-octone
INCHIKEY=QVZZPLDJERFENQ-NKTUOASPSA-N
INCHI=InChI=1S/C48H84N4O12/c1-25(2)21-33-45(57)61-38(30(11)12)42(54)50(18)35(23-27(5)6)47(59)63-40(32(15)16)44(56)52(20)36(24-28(7)8)48(60)64-39(31(13)14)43(55)51(19)34(22-26(3)4)46(58)62-37(29(9)10)41(53)49(33)17/h25-40H,21-24H2,1-20H3/t33-,34-,35-,36-,37+,38+,39+,40+/m0/s1
SMILES=CC(C)C[C@H]1C(=O)O[C@@H](C(=O)N([C@H](C(=O)O[C@@H](C(=O)N([C@H](C(=O)O[C@@H](C(=O)N([C@H](C(=O)O[C@@H](C(=O)N1C)C(C)C)CC(C)C)C)C(C)C)CC(C)C)C)C(C)C)CC(C)C)C)C(C)C
INSTRUMENT_TYPE=LC-ESI-ITFT
INSTRUMENT=Q-Exactive Orbitrap Thermo Scientific
COLLISION_ENERGY=40(NCE)
FORMULA=C48H84N4O12
PARENT=931.5973
SPLASH=splash10-0fb9-0026190001-e0e534264df1ffc3f714
NUM_PEAKS=14
COMPOUND_NAME=Bassanolide
SPECTRUM_ID=MSBNK-AAFC-AC000423
ADDUCT=[M+Na]+
MS_LEVEL=MS2
PRECURSOR_MZ=931.5973
IONMODE=positive
NOMINAL_MASS=909
PARENT_MASS=908.60858
100.1121 60.0
182.154 33.0
210.1489 56.0
232.1319 152.0
250.1424 84.0
350.1949 706.0
368.2068 132.0
477.2959 162.0
495.3065 69.0
577.3483 999.0
595.3589 91.0
704.4481 50.0
804.5008 97.0
931.5978 135.0
END IONS

BEGIN IONS
SYNON=3-hydroxy-4-phenyl-1H-quinolin-2-one
INCHIKEY=QSRVMXWVVMILDI-UHFFFAOYSA-N
INCHI=InChI=1S/C15H11NO2/c17-14-13(10-6-2-1-3-7-10)11-8-4-5-9-12(11)16-15(14)18/h1-9,17H,(H,16,18)
SMILES=C1=CC=C(C=C1)C2=C(C(=O)NC3=CC=CC=C32)O
INSTRUMENT_TYPE=LC-ESI-ITFT
INSTRUMENT=Q-Exactive Orbitrap Thermo Scientific
COLLISION_ENERGY=50(NCE)
FORMULA=C15H11NO2
PARENT=238.0857
SPLASH=splash10-000l-0980000000-3a2dab5384cf78973f21
NUM_PEAKS=7
COMPOUND_NAME=Viridicatin
SPECTRUM_ID=MSBNK-AAFC-AC000277
ADDUCT=[M+H]+
MS_LEVEL=MS2
PRECURSOR_MZ=238.0857
IONMODE=positive
NOMINAL_MASS=237
PARENT_MASS=237.07898
105.0335 77.0
132.0444 284.0
165.0699 187.0
182.0964 42.0
192.0808 668.0
220.0757 130.0
238.0863 999.0
END IONS

BEGIN IONS
INCHIKEY=TVZHDVCTOCZDNE-WVJYZQHISA-N
INCHI=InChI=1S/C19H26O8/c1-9-5-13-18(6-12(9)22,7-24-10(2)20)17(4)15(26-11(3)21)14(23)16(27-13)19(17)8-25-19/h5,12-16,22-23H,6-8H2,1-4H3/t12-,13+,14+,15+,16+,17+,18+,19-/m0/s1
SMILES=CC1=C[C@@H]2[C@](C[C@@H]1O)([C@]3([C@@H]([C@H]([C@H]([C@@]34CO4)O2)O)OC(=O)C)C)COC(=O)C
INSTRUMENT_TYPE=LC-ESI-ITFT
INSTRUMENT=Q-Exactive Orbitrap Thermo Scientific
COLLISION_ENERGY=30(NCE)
FORMULA=C19H26O8
PARENT=383.1695
SPLASH=splash10-006t-1930000000-2b1c0a88fd3643d1ba54
NUM_PEAKS=51
COMPOUND_NAME=Neosolaniol
SPECTRUM_ID=MSBNK-AAFC-AC000196
ADDUCT=[M+H]+
MS_LEVEL=MS2
PRECURSOR_MZ=383.1695
IONMODE=positive
NOMINAL_MASS=382
PARENT_MASS=382.16276
66.1815 39.0
69.0335 48.0
70.2179 43.0
84.0733 39.0
93.0699 213.0
95.0491 178.0
97.0648 195.0
105.0699 96.0
107.0491 100.0
109.0648 98.0
117.0699 47.0
119.0855 58.0
121.0648 999.0
123.0441 45.0
125.0597 199.0
131.0855 82.0
135.0804 65.0
139.0754 63.0
143.0855 193.0
145.1012 187.0
147.0804 71.0
157.1012 203.0
159.0804 98.0
159.1168 114.0
161.0961 175.0
163.0754 54.0
169.1012 106.0
171.0804 46.0
171.1168 178.0
173.0961 349.0
175.0754 50.0
175.1118 76.0
177.0891 45.0
181.1012 83.0
185.0961 294.0
187.1118 302.0
189.1274 109.0
191.1067 189.0
197.0961 439.0
199.1118 487.0
203.1067 236.0
209.0961 96.0
215.1067 513.0
215.7418 48.0
217.1223 263.0
227.1067 398.0
233.1172 111.0
245.1172 453.0
263.1278 385.0
323.1489 69.0
324.1779 48.0
END IONS

BEGIN IONS
SYNON=(1S,3R,3aS,4R,6R,8aR,9R)-Decahydro-1,5,5,8a-tetramethyl-1,4-methanoazulene-3,6,9-triol
INCHIKEY=XFKGEQRMYJCXFK-YTAGIEBCSA-N
INCHI=InChI=1S/C15H26O3/c1-13(2)9(17)5-6-14(3)10-8(16)7-15(14,4)12(18)11(10)13/h8-12,16-18H,5-7H2,1-4H3/t8-,9-,10+,11+,12?,14-,15-/m1/s1
SMILES=C[C@@]12CC[C@H](C([C@H]3[C@@H]1[C@@H](C[C@@]2(C3O)C)O)(C)C)O
INSTRUMENT_TYPE=LC-ESI-ITFT
INSTRUMENT=Q-Exactive Orbitrap Thermo Scientific
COLLISION_ENERGY=20(NCE)
FORMULA=C15H26O3
PARENT=237.1844
SPLASH=splash10-00kr-0590000000-9ccdcede27c6538bb9d5
NUM_PEAKS=20
COMPOUND_NAME=5-hydroxyculmorin
SPECTRUM_ID=MSBNK-AAFC-AC000101
ADDUCT=[M-H2O+H]+
MS_LEVEL=MS2
PRECURSOR_MZ=237.1844
IONMODE=positive
NOMINAL_MASS=254
PARENT_MASS=254.18821
95.0855 103.0
107.0855 59.0
109.1012 76.0
119.0855 58.0
121.1012 66.0
133.1012 36.0
135.1168 48.0
137.0961 152.0
145.1012 59.0
147.1168 44.0
159.1168 99.0
161.1325 62.0
163.1118 33.0
173.1325 54.0
175.1481 253.0
177.1638 116.0
191.1795 113.0
201.1638 388.0
219.1744 674.0
237.1849 999.0
END IONS

BEGIN IONS
INCHIKEY=UQCSETXJXJTMKO-UMURLBKASA-N
INCHI=InChI=1S/C34H59N3O9/c1-16-22(12)25-34(43)46-27(20(8)9)30(39)36(14)23(17(2)3)32(41)44-26(19(6)7)29(38)35(13)24(18(4)5)33(42)45-28(21(10)11)31(40)37(25)15/h17-28H,16H2,1-15H3/t22-,23-,24-,25-,26+,27+,28+/m0/s1
SMILES=CC[C@H](C)[C@H]1C(=O)O[C@@H](C(=O)N([C@H](C(=O)O[C@@H](C(=O)N([C@H](C(=O)O[C@@H](C(=O)N1C)C(C)C)C(C)C)C)C(C)C)C(C)C)C)C(C)C
INSTRUMENT_TYPE=LC-ESI-ITFT
INSTRUMENT=Q-Exactive Orbitrap Thermo Scientific
COLLISION_ENERGY=50(NCE)
FORMULA=C34H59N3O9
PARENT=654.4319
SPLASH=splash10-000i-9610000000-4713ca33161dec6ce7c9
NUM_PEAKS=8
COMPOUND_NAME=Enniatin B1
SPECTRUM_ID=MSBNK-AAFC-AC000466
ADDUCT=[M+H]+
MS_LEVEL=MS2
PRECURSOR_MZ=654.4319
IONMODE=positive
NOMINAL_MASS=653
PARENT_MASS=653.42513
86.0964 999.0
100.1121 498.0
166.0863 35.0
186.1489 123.0
196.1332 110.0
200.1645 41.0
210.1462 53.0
214.1411 59.0
END IONS

BEGIN IONS
SYNON=2-(hydroxymethyl)benzene-1,4-diol
INCHIKEY=PUZSUVGRVHEUQO-UHFFFAOYSA-N
INCHI=InChI=1S/C7H8O3/c8-4-5-3-6(9)1-2-7(5)10/h1-3,8-10H,4H2
SMILES=C1=CC(=C(C=C1O)CO)O
INSTRUMENT_TYPE=LC-ESI-ITFT
INSTRUMENT=Q-Exactive Orbitrap Thermo Scientific
COLLISION_ENERGY=55(NCE)
FORMULA=C7H8O3
PARENT=141.0541
SPLASH=splash10-004l-0900000000-9eeebd6a3cdbf4c669a1
NUM_PEAKS=3
COMPOUND_NAME=Gentisyl alcohol
SPECTRUM_ID=MSBNK-AAFC-AC000723
ADDUCT=[M+H]+
MS_LEVEL=MS2
PRECURSOR_MZ=141.0541
IONMODE=positive
NOMINAL_MASS=140
PARENT_MASS=140.04734
71.0128 40.0
126.0311 999.0
141.0546 863.0
END IONS

BEGIN IONS
INCHIKEY=UXDPXZQHTDAXOZ-STOIETHLSA-N
INCHI=InChI=1S/C34H59NO14/c1-5-6-12-21(3)32(49-31(43)18-24(34(46)47)16-29(40)41)27(48-30(42)17-23(33(44)45)15-28(38)39)14-20(2)11-9-7-8-10-13-25(36)19-26(37)22(4)35/h20-27,32,36-37H,5-19,35H2,1-4H3,(H,38,39)(H,40,41)(H,44,45)(H,46,47)/t20-,21+,22-,23+,24+,25+,26-,27-,32+/m0/s1
SMILES=CCCC[C@@H](C)[C@H]([C@H](C[C@@H](C)CCCCCC[C@H](C[C@@H]([C@H](C)N)O)O)OC(=O)C[C@@H](CC(=O)O)C(=O)O)OC(=O)C[C@@H](CC(=O)O)C(=O)O
INSTRUMENT_TYPE=LC-ESI-ITFT
INSTRUMENT=Q-Exactive Orbitrap Thermo Scientific
COLLISION_ENERGY=35(NCE)
FORMULA=C34H59NO14
PARENT=706.4003
SPLASH=splash10-00ri-8509000000-cdb67f2bb6fadd4cf09e
NUM_PEAKS=30
COMPOUND_NAME=Fumonisin B2
SPECTRUM_ID=MSBNK-AAFC-AC000483
ADDUCT=[M+H]+
MS_LEVEL=MS2
PRECURSOR_MZ=706.4003
IONMODE=positive
NOMINAL_MASS=705
PARENT_MASS=705.39354
57.0705 53.0
67.0542 61.0
69.0699 271.0
70.0651 139.0
74.06 369.0
81.0699 211.0
83.0855 100.0
85.1012 81.0
93.0699 72.0
95.0855 258.0
97.1012 85.0
107.0855 87.0
109.1012 184.0
111.1168 59.0
113.0233 34.0
121.1012 80.0
123.1168 92.0
133.1012 34.0
135.1168 78.0
137.1325 37.0
141.0182 47.0
147.1168 41.0
149.1325 63.0
159.0288 231.0
208.206 39.0
220.206 45.0
238.2166 54.0
318.3129 709.0
336.3234 999.0
354.334 173.0
END IONS

BEGIN IONS
SYNON=2-(hydroxymethyl)benzene-1,4-diol
INCHIKEY=PUZSUVGRVHEUQO-UHFFFAOYSA-N
INCHI=InChI=1S/C7H8O3/c8-4-5-3-6(9)1-2-7(5)10/h1-3,8-10H,4H2
SMILES=C1=CC(=C(C=C1O)CO)O
INSTRUMENT_TYPE=LC-ESI-ITFT
INSTRUMENT=Q-Exactive Orbitrap Thermo Scientific
COLLISION_ENERGY=10(NCE)
FORMULA=C7H8O3
PARENT=141.0541
SPLASH=splash10-0006-0900000000-616e2bddeae9b1ba6195
NUM_PEAKS=2
COMPOUND_NAME=Gentisyl alcohol
SPECTRUM_ID=MSBNK-AAFC-AC000719
ADDUCT=[M+H]+
MS_LEVEL=MS2
PRECURSOR_MZ=141.0541
IONMODE=positive
NOMINAL_MASS=140
PARENT_MASS=140.04734
126.0311 164.0
141.0546 999.0
END IONS

BEGIN IONS
SYNON=(1R,4S,5S,6R,9R)-5,6-dihydroxy-4,11,11-trimethyl-8-methylidenebicyclo[7.2.0]undecan-3-one
INCHIKEY=NGQXJSTYWWTPOG-VGYDOTAVSA-N
INCHI=InChI=1S/C15H24O3/c1-8-5-13(17)14(18)9(2)12(16)6-11-10(8)7-15(11,3)4/h9-11,13-14,17-18H,1,5-7H2,2-4H3/t9-,10+,11-,13-,14+/m1/s1
SMILES=C[C@H]1[C@@H]([C@@H](CC(=C)[C@@H]2CC([C@@H]2CC1=O)(C)C)O)O
INSTRUMENT_TYPE=LC-ESI-ITFT
INSTRUMENT=Q-Exactive Orbitrap Thermo Scientific
COLLISION_ENERGY=10(NCE)
FORMULA=C15H24O3
PARENT=253.1793
SPLASH=splash10-0udi-0790000000-ad5e8c276a34e89c0346
NUM_PEAKS=23
COMPOUND_NAME=Walleminone
SPECTRUM_ID=MSBNK-AAFC-AC000278
ADDUCT=[M+H]+
MS_LEVEL=MS2
PRECURSOR_MZ=253.1793
IONMODE=positive
NOMINAL_MASS=252
PARENT_MASS=252.17255
95.0855 40.0
109.0648 37.0
109.1012 33.0
119.0855 31.0
121.1012 65.0
123.1168 45.0
125.0597 39.0
133.1012 35.0
135.1168 36.0
137.0961 48.0
151.1481 33.0
155.0703 65.0
161.1325 47.0
163.1118 52.0
167.1067 33.0
175.1481 86.0
179.1067 114.0
179.1431 76.0
181.1223 70.0
197.1172 34.0
217.1587 69.0
235.1693 177.0
253.1798 999.0
END IONS

BEGIN IONS
INCHIKEY=OUMWCYMRLMEZJH-VOXRAUTJSA-N
INCHI=InChI=1S/C32H36N2O5/c1-17-8-7-10-22-29-31(4,39-29)19(3)27-24(15-20-16-33-23-11-6-5-9-21(20)23)34-30(38)32(22,27)26(36)13-12-25(35)28(37)18(2)14-17/h5-7,9-14,16-17,19,22,24,27-29,33,37H,8,15H2,1-4H3,(H,34,38)/b10-7+,13-12+,18-14+/t17-,19-,22-,24-,27-,28+,29-,31+,32+/m0/s1
SMILES=C[C@H]\1C/C=C/[C@H]2[C@H]3[C@](O3)([C@H]([C@@H]4[C@@]2(C(=O)/C=C/C(=O)[C@@H](/C(=C1)/C)O)C(=O)N[C@H]4CC5=CNC6=CC=CC=C65)C)C
INSTRUMENT_TYPE=LC-ESI-ITFT
INSTRUMENT=Q-Exactive Orbitrap Thermo Scientific
COLLISION_ENERGY=35(NCE)
FORMULA=C32H36N2O5
PARENT=551.2511
SPLASH=splash10-0udi-0000090000-4a293ca4af10631015cb
NUM_PEAKS=12
COMPOUND_NAME=Chaetoglobosin A
SPECTRUM_ID=MSBNK-AAFC-AC000088
ADDUCT=[M+Na]+
MS_LEVEL=MS2
PRECURSOR_MZ=551.2511
IONMODE=positive
NOMINAL_MASS=528
PARENT_MASS=528.26243
160.0366 38.0
240.0992 38.0
287.1152 47.0
289.0945 42.0
317.0897 33.0
352.1543 41.0
371.1727 41.0
375.1805 40.0
422.1938 51.0
505.2462 75.0
523.2567 439.0
551.2517 999.0
END IONS

BEGIN IONS
SYNON=4-methyl-3'-phenylspiro[1H-1,4-benzodiazepine-3,2'-oxirane]-2,5-dione
INCHIKEY=APLKWZASYUZSBL-XPCCGILXSA-N
INCHI=InChI=1S/C17H14N2O3/c1-19-15(20)12-9-5-6-10-13(12)18-16(21)17(19)14(22-17)11-7-3-2-4-8-11/h2-10,14H,1H3,(H,18,21)/t14-,17?/m1/s1
SMILES=CN1C(=O)C2=CC=CC=C2NC(=O)C13[C@H](O3)C4=CC=CC=C4
INSTRUMENT_TYPE=LC-ESI-ITFT
INSTRUMENT=Q-Exactive Orbitrap Thermo Scientific
COLLISION_ENERGY=20(NCE)
FORMULA=C17H14N2O3
PARENT=295.1072
SPLASH=splash10-004j-0910000000-cba0875182ddfe2cc76d
NUM_PEAKS=9
COMPOUND_NAME=Cyclopenin
SPECTRUM_ID=MSBNK-AAFC-AC000868
ADDUCT=[M+H]+
MS_LEVEL=MS2
PRECURSOR_MZ=295.1072
IONMODE=positive
NOMINAL_MASS=294
PARENT_MASS=294.10043
120.0444 220.0
146.0236 511.0
177.0658 999.0
208.0757 41.0
210.0913 32.0
236.0706 107.0
239.1179 35.0
264.0655 37.0
295.1077 120.0
END IONS

BEGIN IONS
INCHIKEY=TWHBYJSVDCWICV-BHZTXFQCSA-N
INCHI=InChI=1S/C36H63N3O9/c1-16-22(10)25-34(43)46-29(20(6)7)32(41)38(14)27(24(12)18-3)36(45)48-30(21(8)9)33(42)39(15)26(23(11)17-2)35(44)47-28(19(4)5)31(40)37(25)13/h19-30H,16-18H2,1-15H3/t22-,23-,24-,25-,26-,27-,28+,29+,30+/m0/s1
SMILES=CC[C@H](C)[C@H]1C(=O)O[C@@H](C(=O)N([C@H](C(=O)O[C@@H](C(=O)N([C@H](C(=O)O[C@@H](C(=O)N1C)C(C)C)[C@@H](C)CC)C)C(C)C)[C@@H](C)CC)C)C(C)C
INSTRUMENT_TYPE=LC-ESI-ITFT
INSTRUMENT=Q-Exactive Orbitrap Thermo Scientific
COLLISION_ENERGY=35(NCE)
FORMULA=C36H63N3O9
PARENT=682.4632
SPLASH=splash10-0w29-0591000000-b147b89dd4cca65c6c7f
NUM_PEAKS=5
COMPOUND_NAME=Enniatin A
SPECTRUM_ID=MSBNK-AAFC-AC000447
ADDUCT=[M+H]+
MS_LEVEL=MS2
PRECURSOR_MZ=682.4632
IONMODE=positive
NOMINAL_MASS=681
PARENT_MASS=681.45644
100.1121 999.0
200.1645 391.0
210.1489 861.0
228.1594 441.0
328.2119 188.0
END IONS

BEGIN IONS
SYNON=12'-Hydroxy-2',5'a-bis(1-methylethyl)-8a-ergotaman-3',6',18-trione
INCHIKEY=UJYGDMFEEDNVBF-OGGGUQDZSA-N
INCHI=InChI=1S/C31H39N5O5/c1-16(2)26-28(38)35-11-7-10-24(35)31(40)36(26)29(39)30(41-31,17(3)4)33-27(37)19-12-21-20-8-6-9-22-25(20)18(14-32-22)13-23(21)34(5)15-19/h6,8-9,12,14,16-17,19,23-24,26,32,40H,7,10-11,13,15H2,1-5H3,(H,33,37)/t19-,23-,24+,26+,30-,31+/m1/s1
SMILES=CC(C)[C@H]1C(=O)N2CCC[C@H]2[C@]3(N1C(=O)[C@](O3)(C(C)C)NC(=O)[C@H]4CN([C@@H]5CC6=CNC7=CC=CC(=C67)C5=C4)C)O
INSTRUMENT_TYPE=LC-ESI-ITFT
INSTRUMENT=Q-Exactive Orbitrap Thermo Scientific
COLLISION_ENERGY=20(NCE)
FORMULA=C31H39N5O5
PARENT=584.2838
SPLASH=splash10-0006-0090040000-0afb3a9b4678bfd3e4da
NUM_PEAKS=4
COMPOUND_NAME=Ergocorninine
SPECTRUM_ID=MSBNK-AAFC-AC000299
ADDUCT=[M+Na]+
MS_LEVEL=MS2
PRECURSOR_MZ=584.2838
IONMODE=positive
NOMINAL_MASS=561
PARENT_MASS=561.29511
290.1248 999.0
362.1665 85.0
541.2421 82.0
584.2843 402.0
END IONS

BEGIN IONS
SYNON=(2S)-6-[(3R,7R,8R,8aS)-3,4'-dihydroxy-4,4,7,8a-tetramethyl-6'-oxospiro[2,3,4a,5,6,7-hexahydro-1H-naphthalene-8,2'-3,8-dihydrofuro[2,3-e]isoindole]-7'-yl]-2-[(2R,3S,7R,8R,8aS)-2,3,4'-trihydroxy-4,4,7,8a-tetramethyl-6'-oxospiro[2,3,4a,5,6,7-hexahydro-1H-naphthalene-8,2'-3,8-dihydrofuro[2,3-e]isoindole]-7'-yl]hexanoic acid
INCHIKEY=ZRTGPZGAMCJZNA-CRDDFVEESA-N
INCHI=InChI=1S/C52H70N2O11/c1-26-12-14-38-47(3,4)40(58)16-17-49(38,7)51(26)21-30-35(55)19-28-32(41(30)64-51)24-53(44(28)60)18-10-9-11-34(46(62)63)54-25-33-29(45(54)61)20-36(56)31-22-52(65-42(31)33)27(2)13-15-39-48(5,6)43(59)37(57)23-50(39,52)8/h19-20,26-27,34,37-40,43,55-59H,9-18,21-25H2,1-8H3,(H,62,63)/t26-,27-,34+,37-,38?,39?,40-,43-,49+,50+,51-,52-/m1/s1
SMILES=C[C@@H]1CCC2[C@@]([C@@]13CC4=C(C=C5C(=C4O3)CN(C5=O)CCCC[C@@H](C(=O)O)N6CC7=C8C(=C(C=C7C6=O)O)C[C@@]9(O8)[C@@H](CCC1[C@@]9(C[C@H]([C@H](C1(C)C)O)O)C)C)O)(CC[C@H](C2(C)C)O)C
INSTRUMENT_TYPE=LC-ESI-ITFT
INSTRUMENT=Q-Exactive Orbitrap Thermo Scientific
COLLISION_ENERGY=50(NCE)
FORMULA=C52H70N2O11
PARENT=899.5047
SPLASH=splash10-0006-1894200000-f68ec12cd8e8fb273b87
NUM_PEAKS=50
COMPOUND_NAME=Stachybocin B
SPECTRUM_ID=MSBNK-AAFC-AC000614
ADDUCT=[M+H]+
MS_LEVEL=MS2
PRECURSOR_MZ=899.5047
IONMODE=positive
NOMINAL_MASS=898
PARENT_MASS=898.49797
67.0542 31.0
81.0699 49.0
82.0651 44.0
84.0808 50.0
93.0699 42.0
95.0855 101.0
107.0855 89.0
109.1012 80.0
119.0855 68.0
121.1012 93.0
133.1012 137.0
135.1168 53.0
147.1168 44.0
149.1325 61.0
175.1481 33.0
178.0499 349.0
180.0655 67.0
187.1481 48.0
189.1638 167.0
190.0499 231.0
191.0577 55.0
192.0655 339.0
205.1587 33.0
216.0655 72.0
216.1019 72.0
218.0812 80.0
226.0863 60.0
228.0992 38.0
230.0812 120.0
232.0968 70.0
242.0812 87.0
243.089 111.0
244.0968 999.0
245.1046 93.0
246.1125 117.0
256.0968 36.0
296.1281 39.0
366.2037 38.0
368.2193 218.0
380.2193 279.0
384.2143 122.0
396.2143 353.0
398.2299 44.0
408.2507 39.0
414.2248 59.0
421.1367 126.0
432.2507 54.0
434.2663 135.0
448.2456 34.0
450.2612 60.0
END IONS

BEGIN IONS
SYNON=Ethyl 2-[(8-hydroxy-3-methyl-1-oxo-isochroman-7-carbonyl)amino]-3-phenyl-propanoate
INCHIKEY=XXAVUHHKDMGGBR-UHFFFAOYSA-N
INCHI=InChI=1S/C22H23NO6/c1-3-28-21(26)17(12-14-7-5-4-6-8-14)23-20(25)16-10-9-15-11-13(2)29-22(27)18(15)19(16)24/h4-10,13,17,24H,3,11-12H2,1-2H3,(H,23,25)
SMILES=CCOC(=O)C(CC1=CC=CC=C1)NC(=O)C2=C(C3=C(CC(OC3=O)C)C=C2)O
INSTRUMENT_TYPE=LC-ESI-ITFT
INSTRUMENT=Q-Exactive Orbitrap Thermo Scientific
COLLISION_ENERGY=30(NCE)
FORMULA=C22H23NO6
PARENT=398.1593
SPLASH=splash10-00di-0009000000-b7fb1ae405a6ed8807f2
NUM_PEAKS=9
COMPOUND_NAME=Ochratoxin B ethyl ester
SPECTRUM_ID=MSBNK-AAFC-AC000798
ADDUCT=[M+H]+
MS_LEVEL=MS2
PRECURSOR_MZ=398.1593
IONMODE=positive
NOMINAL_MASS=397
PARENT_MASS=397.15253
120.0808 165.0
217.0859 33.0
324.1594 135.0
327.1465 48.0
328.1543 136.0
352.1543 48.0
370.1649 999.0
380.1492 238.0
398.1598 162.0
END IONS

BEGIN IONS
INCHIKEY=GTONGKBINDTWOM-QXMOYCCXSA-N
INCHI=InChI=1S/C29H36O10/c1-16-7-9-26-14-34-23(32)22-28(39-22)10-11-35-27(17(2)30,24(28)33)8-5-4-6-21(31)38-18-13-20(37-19(26)12-16)29(15-36-29)25(18,26)3/h4-6,8,12,17-20,22,24,30,33H,7,9-11,13-15H2,1-3H3/b6-4-,8-5+
SMILES=CC1=CC2C3(CC1)COC(=O)C4C5(O4)CCOC(C5O)(/C=C/C=C\C(=O)OC6C3(C7(CO7)C(C6)O2)C)C(C)O
INSTRUMENT_TYPE=LC-ESI-ITFT
INSTRUMENT=Q-Exactive Orbitrap Thermo Scientific
COLLISION_ENERGY=40(NCE)
FORMULA=C29H36O10
PARENT=567.2195
SPLASH=splash10-01q9-3980010000-bc456dadd2b083076d5c
NUM_PEAKS=48
COMPOUND_NAME=Satratoxin G
SPECTRUM_ID=MSBNK-AAFC-AC000599
ADDUCT=[M+Na]+
MS_LEVEL=MS2
PRECURSOR_MZ=567.2195
IONMODE=positive
NOMINAL_MASS=544
PARENT_MASS=544.23084
67.0551 39.0
69.0345 35.0
79.0553 96.0
81.0708 200.0
91.0552 43.0
93.0699 159.0
95.0502 197.0
95.0865 146.0
105.0699 221.0
107.0855 111.0
109.0648 37.0
117.0699 40.0
119.0855 252.0
121.0648 146.0
121.1012 46.0
123.0804 37.0
131.0855 127.0
133.1012 100.0
135.0804 41.0
143.0855 173.0
145.1012 82.0
147.0804 136.0
147.1168 95.0
149.0961 91.0
157.1012 99.0
159.1168 230.0
161.0961 92.0
161.1325 45.0
167.0315 38.0
175.1481 107.0
185.1325 117.0
187.1118 37.0
189.1274 36.0
193.0471 89.0
203.1431 128.0
219.0628 243.0
231.138 999.0
245.0784 36.0
249.0733 43.0
253.1223 72.0
263.089 675.0
271.1305 32.0
275.0526 272.0
293.0632 86.0
293.0996 42.0
319.0788 77.0
523.1963 270.0
567.2201 182.0
END IONS

BEGIN IONS
SYNON=(1R,4S,5S,6R,9R)-5,6-dihydroxy-4,11,11-trimethyl-8-methylidenebicyclo[7.2.0]undecan-3-one
INCHIKEY=NGQXJSTYWWTPOG-VGYDOTAVSA-N
INCHI=InChI=1S/C15H24O3/c1-8-5-13(17)14(18)9(2)12(16)6-11-10(8)7-15(11,3)4/h9-11,13-14,17-18H,1,5-7H2,2-4H3/t9-,10+,11-,13-,14+/m1/s1
SMILES=C[C@H]1[C@@H]([C@@H](CC(=C)[C@@H]2CC([C@@H]2CC1=O)(C)C)O)O
INSTRUMENT_TYPE=LC-ESI-ITFT
INSTRUMENT=Q-Exactive Orbitrap Thermo Scientific
COLLISION_ENERGY=35(NCE)
FORMULA=C15H24O3
PARENT=235.1687
SPLASH=splash10-03xr-0900000000-4c4228db5f59c750e436
NUM_PEAKS=43
COMPOUND_NAME=Walleminone
SPECTRUM_ID=MSBNK-AAFC-AC000286
ADDUCT=[M-H2O+H]+
MS_LEVEL=MS2
PRECURSOR_MZ=235.1687
IONMODE=positive
NOMINAL_MASS=252
PARENT_MASS=252.17255
67.0542 32.0
69.0706 72.0
81.0699 87.0
83.0491 31.0
83.0855 34.0
91.0542 51.0
93.0699 102.0
95.0855 142.0
105.0699 196.0
107.0855 278.0
109.0648 140.0
109.1012 90.0
117.0699 33.0
119.0855 422.0
121.0648 107.0
121.1012 230.0
123.0804 61.0
123.1168 32.0
127.0754 40.0
131.0855 60.0
133.1012 422.0
135.0804 35.0
135.1168 90.0
143.0855 119.0
145.1012 126.0
147.0804 34.0
147.1168 116.0
157.1012 82.0
159.1168 131.0
161.0961 261.0
161.1325 999.0
163.1118 68.0
165.091 36.0
171.1168 42.0
173.1325 232.0
175.1118 73.0
175.1481 342.0
177.1274 225.0
179.1067 40.0
189.1638 132.0
199.1481 105.0
217.1587 249.0
235.1693 317.0
END IONS

BEGIN IONS
SYNON=(5R,10S,10aR,14aS,15bS)-10,10a-dihydroxy-6-methoxy-2,2-dimethyl-5-(2-methylprop-1-en-1-yl)-1,10,10a,14,14a,15b-hexahydro-12H-3,4-dioxa-5a,11a,15a-triazacycloocta[1,2,3-lm]indeno[5,6-b]fluorene-11,15(2H,13H)-dione
INCHIKEY=LRXYHMMJJCTUMY-GWXUGYLUSA-N
INCHI=InChI=1S/C27H33N3O7/c1-14(2)11-20-29-18-12-15(35-5)8-9-16(18)21-22(29)19(13-26(3,4)37-36-20)30-24(32)17-7-6-10-28(17)25(33)27(30,34)23(21)31/h8-9,11-12,17,19-20,23,31,34H,6-7,10,13H2,1-5H3/t17-,19-,20+,23-,27+/m0/s1
SMILES=CC(=C[C@@H]1N2C3=C(C=CC(=C3)OC)C4=C2[C@H](CC(OO1)(C)C)N5C(=O)[C@@H]6CCCN6C(=O)[C@@]5([C@H]4O)O)C
INSTRUMENT_TYPE=LC-ESI-ITFT
INSTRUMENT=Q-Exactive Orbitrap Thermo Scientific
COLLISION_ENERGY=20(NCE)
FORMULA=C27H33N3O7
PARENT=512.2386
SPLASH=splash10-00dj-0339100000-ca173a5047735842191a
NUM_PEAKS=47
COMPOUND_NAME=Verruculogen
SPECTRUM_ID=MSBNK-AAFC-AC000753
ADDUCT=[M+H]+
MS_LEVEL=MS2
PRECURSOR_MZ=512.2386
IONMODE=positive
NOMINAL_MASS=511
PARENT_MASS=511.23184
70.0651 209.0
153.0658 31.0
169.0608 38.0
172.0757 31.0
181.0608 33.0
188.0706 37.0
191.0577 31.0
198.0913 767.0
199.0866 58.0
201.0784 46.0
202.0863 95.0
202.1226 38.0
210.0913 52.0
227.0815 86.0
228.1019 48.0
230.1176 298.0
240.1019 158.0
242.1176 69.0
255.0764 200.0
258.1125 31.0
259.1203 38.0
260.1241 53.0
295.1077 95.0
296.1367 33.0
310.1186 176.0
313.1183 170.0
322.1101 72.0
323.1264 115.0
324.1343 205.0
331.1288 48.0
336.1343 33.0
338.1135 140.0
342.1421 54.0
350.1472 37.0
352.1292 681.0
356.1241 66.0
364.1629 74.0
370.1397 999.0
372.119 62.0
378.1448 52.0
392.1578 76.0
410.171 65.0
428.1816 71.0
448.2204 43.0
476.218 48.0
477.1171 72.0
494.2286 40.0
END IONS

BEGIN IONS
SYNON=(3beta,4alpha,12R)-3-Hydroxy-12,13-epoxytrichothec-9-ene-4,15-diyl diacetate
INCHIKEY=AUGQEEXBDZWUJY-ZLJUKNTDSA-N
INCHI=InChI=1S/C19H26O7/c1-10-5-6-18(8-23-11(2)20)13(7-10)26-16-14(22)15(25-12(3)21)17(18,4)19(16)9-24-19/h7,13-16,22H,5-6,8-9H2,1-4H3/t13-,14-,15-,16-,17-,18-,19-/m1/s1
SMILES=CC1=C[C@@H]2[C@](CC1)([C@]3([C@@H]([C@H]([C@H]([C@]34CO4)O2)O)OC(=O)C)C)COC(=O)C
INSTRUMENT_TYPE=LC-ESI-ITFT
INSTRUMENT=Q-Exactive Orbitrap Thermo Scientific
COLLISION_ENERGY=50(NCE)
FORMULA=C19H26O7
PARENT=367.1746
SPLASH=splash10-0a59-2900000000-681ca8973e10dd00e9f5
NUM_PEAKS=74
COMPOUND_NAME=Diacetoxyscirpenol
SPECTRUM_ID=MSBNK-AAFC-AC000124
ADDUCT=[M+H]+
MS_LEVEL=MS2
PRECURSOR_MZ=367.1746
IONMODE=positive
NOMINAL_MASS=366
PARENT_MASS=366.16785
67.0542 100.0
69.0335 73.0
69.0699 31.0
79.0542 244.0
81.0699 328.0
83.0491 56.0
85.0284 35.0
91.0542 214.0
93.0699 310.0
95.0491 302.0
95.0855 228.0
97.0648 243.0
105.0699 999.0
107.0491 120.0
107.0855 267.0
109.0648 240.0
113.0597 121.0
117.0699 120.0
119.0491 32.0
119.0855 232.0
121.0648 272.0
123.0441 49.0
123.0804 284.0
125.0597 215.0
128.0621 83.0
129.0699 142.0
130.0777 31.0
131.0855 351.0
133.0648 55.0
133.1012 122.0
135.0804 48.0
137.0597 61.0
139.0754 32.0
141.0699 82.0
142.0777 174.0
143.0855 300.0
144.0934 48.0
145.0648 89.0
145.1012 259.0
147.0804 111.0
147.1168 82.0
153.0699 52.0
154.0777 35.0
155.0855 171.0
156.0934 96.0
157.1012 220.0
158.109 43.0
159.0804 118.0
159.1168 214.0
161.0961 105.0
163.1118 31.0
166.0777 43.0
168.0934 159.0
169.1012 77.0
171.0804 34.0
171.1168 114.0
173.0961 70.0
173.1325 110.0
175.1118 124.0
178.0777 44.0
181.0648 31.0
181.1012 59.0
183.1168 161.0
187.1118 82.0
189.1274 41.0
193.1012 56.0
196.0883 60.0
199.1118 194.0
201.1274 126.0
211.1118 51.0
217.1223 48.0
219.138 33.0
229.1223 60.0
247.1329 44.0
END IONS

BEGIN IONS
SYNON=(1S,4S,7R,10S,13S)-7-(2-methylpropyl)-4,10-di(propan-2-yl)-15,16-dithia-3,6,9,12,18-pentazabicyclo[11.4.2]nonadecane-2,5,8,11,19-pentone
INCHIKEY=KRQRRZFXHYYNSO-MTSZKFMLSA-N
INCHI=InChI=1S/C22H37N5O5S2/c1-10(2)7-13-18(28)26-17(12(5)6)22(32)25-14-8-33-34-9-15(24-19(14)29)20(30)27-16(11(3)4)21(31)23-13/h10-17H,7-9H2,1-6H3,(H,23,31)(H,24,29)(H,25,32)(H,26,28)(H,27,30)/t13-,14-,15-,16+,17+/m1/s1
SMILES=CC(C)C[C@@H]1C(=O)N[C@H](C(=O)N[C@@H]2CSSC[C@H](C(=O)N[C@H](C(=O)N1)C(C)C)NC2=O)C(C)C
INSTRUMENT_TYPE=LC-ESI-ITFT
INSTRUMENT=Q-Exactive Orbitrap Thermo Scientific
COLLISION_ENERGY=10(NCE)
FORMULA=C22H37N5O5S2
PARENT=516.2303
SPLASH=splash10-014i-0000390000-2df4bbe739842d354285
NUM_PEAKS=6
COMPOUND_NAME=Malformin A2
SPECTRUM_ID=MSBNK-AAFC-AC000872
ADDUCT=[M+H]+
MS_LEVEL=MS2
PRECURSOR_MZ=516.2303
IONMODE=positive
NOMINAL_MASS=515
PARENT_MASS=515.2236
91.0542 74.0
417.1604 165.0
471.2094 113.0
474.8356 77.0
488.236 40.0
516.2309 999.0
END IONS

BEGIN IONS
SYNON=12'-hydroxy-2'-methyl-5' alpha-(1-methylethyl)-ergotaman-3',6',18-trione
INCHIKEY=BGHDUTQZGWOQIA-VQSKNWBGSA-N
INCHI=InChI=1S/C29H35N5O5/c1-15(2)24-26(36)33-10-6-9-22(33)29(38)34(24)27(37)28(3,39-29)31-25(35)17-11-19-18-7-5-8-20-23(18)16(13-30-20)12-21(19)32(4)14-17/h5,7-8,11,13,15,17,21-22,24,30,38H,6,9-10,12,14H2,1-4H3,(H,31,35)/t17-,21-,22+,24+,28-,29+/m1/s1
SMILES=CC(C)[C@H]1C(=O)N2CCC[C@H]2[C@]3(N1C(=O)[C@](O3)(C)NC(=O)[C@H]4CN([C@@H]5CC6=CNC7=CC=CC(=C67)C5=C4)C)O
INSTRUMENT_TYPE=LC-ESI-ITFT
INSTRUMENT=Q-Exactive Orbitrap Thermo Scientific
COLLISION_ENERGY=40(NCE)
FORMULA=C29H35N5O5
PARENT=534.2705
SPLASH=splash10-0ab9-0090000000-38fef92d31c59537cdaf
NUM_PEAKS=17
COMPOUND_NAME=Ergovaline
SPECTRUM_ID=MSBNK-AAFC-AC000330
ADDUCT=[M+H]+
MS_LEVEL=MS2
PRECURSOR_MZ=534.2705
IONMODE=positive
NOMINAL_MASS=533
PARENT_MASS=533.26381
70.0659 46.0
180.0808 132.0
192.0808 50.0
197.1073 70.0
197.1285 42.0
208.0757 999.0
208.0995 60.0
221.1073 47.0
223.123 823.0
225.1022 391.0
237.1022 31.0
249.1009 48.0
249.1234 67.0
251.1179 49.0
268.1444 184.0
277.0972 50.0
292.1444 32.0
END IONS

BEGIN IONS
SYNON=3-[(3S,6R,9S,12S,15R,18S,21S,25R)-9-(carboxymethyl)-3,6,15,18-tetrakis(2-methylpropyl)-25-(10-methylundecyl)-2,5,8,11,14,17,20,23-octaoxo-12-propan-2-yl-1-oxa-4,7,10,13,16,19,22-heptazacyclopentacos-21-yl]propanoic acid
INCHIKEY=NJGWOFRZMQRKHT-WGVNQGGSSA-N
INCHI=InChI=1S/C53H93N7O13/c1-30(2)20-18-16-14-13-15-17-19-21-36-28-43(61)54-37(22-23-44(62)63)47(66)55-38(24-31(3)4)48(67)57-40(26-33(7)8)51(70)60-46(35(11)12)52(71)58-41(29-45(64)65)50(69)56-39(25-32(5)6)49(68)59-42(27-34(9)10)53(72)73-36/h30-42,46H,13-29H2,1-12H3,(H,54,61)(H,55,66)(H,56,69)(H,57,67)(H,58,71)(H,59,68)(H,60,70)(H,62,63)(H,64,65)/t36-,37+,38+,39-,40-,41+,42+,46+/m1/s1
SMILES=CC(C)CCCCCCCCC[C@@H]1CC(=O)N[C@H](C(=O)N[C@H](C(=O)N[C@@H](C(=O)N[C@H](C(=O)N[C@H](C(=O)N[C@@H](C(=O)N[C@H](C(=O)O1)CC(C)C)CC(C)C)CC(=O)O)C(C)C)CC(C)C)CC(C)C)CCC(=O)O
INSTRUMENT_TYPE=LC-ESI-ITFT
INSTRUMENT=Q-Exactive Orbitrap Thermo Scientific
COLLISION_ENERGY=10(NCE)
FORMULA=C53H93N7O13
PARENT=1036.6899
SPLASH=splash10-000i-9000000000-e169b49d2e1c01bac966
NUM_PEAKS=2
COMPOUND_NAME=Surfactin C
SPECTRUM_ID=MSBNK-AAFC-AC000724
ADDUCT=[M+H]+
MS_LEVEL=MS2
PRECURSOR_MZ=1036.6899
IONMODE=positive
NOMINAL_MASS=1036
PARENT_MASS=1035.68314
685.4508 59.0
1036.6904 999.0
END IONS

BEGIN IONS
SYNON=(2S)-4-acetyl-2-[(2S)-butan-2-yl]-3-hydroxy-1,2-dihydropyrrol-5-one
INCHIKEY=CEIZFXOZIQNICU-XNCJUZBTSA-N
INCHI=InChI=1S/C10H15NO3/c1-4-5(2)8-9(13)7(6(3)12)10(14)11-8/h5,8,13H,4H2,1-3H3,(H,11,14)/t5-,8-/m0/s1
SMILES=CC[C@H](C)[C@H]1C(=C(C(=O)N1)C(=O)C)O
INSTRUMENT_TYPE=LC-ESI-ITFT
INSTRUMENT=Q-Exactive Orbitrap Thermo Scientific
COLLISION_ENERGY=55(NCE)
FORMULA=C10H15NO3
PARENT=198.1119
SPLASH=splash10-0fuv-6900000000-0eb2b0869ca496783628
NUM_PEAKS=52
COMPOUND_NAME=Tenuazonic acid
SPECTRUM_ID=MSBNK-AAFC-AC000641
ADDUCT=[M+H]+
MS_LEVEL=MS2
PRECURSOR_MZ=198.1119
IONMODE=positive
NOMINAL_MASS=197
PARENT_MASS=197.10519
55.019 222.0
55.0552 158.0
57.0345 36.0
57.0709 367.0
67.0188 38.0
67.0554 86.0
69.0708 184.0
71.0138 38.0
71.0865 31.0
72.0454 117.0
79.0551 101.0
81.0709 59.0
83.0137 999.0
83.05 45.0
83.0855 238.0
86.0611 35.0
86.0973 257.0
91.0542 101.0
93.0699 172.0
95.0855 112.0
96.0444 196.0
97.0284 677.0
97.0648 175.0
97.1012 121.0
100.0393 397.0
107.0491 58.0
107.0855 104.0
109.0648 31.0
111.0804 426.0
114.055 53.0
115.039 801.0
121.0648 121.0
123.0315 33.0
124.0393 270.0
125.0233 727.0
125.0597 231.0
125.0961 144.0
127.039 50.0
135.0804 182.0
138.0913 150.0
139.039 318.0
139.0754 170.0
141.042 60.0
142.0499 630.0
143.0342 235.0
152.107 38.0
153.091 313.0
156.1019 101.0
163.0754 33.0
180.1019 104.0
181.0859 50.0
198.1125 114.0
END IONS

BEGIN IONS
SYNON=(7aR,10aS)-5-Methoxy-3,4,7a,9,10,10a-hexahydro-1H,12H-furo[3',2':4,5]furo[2,3-h]pyrano[3,4-c]chromene-1,12-dione
INCHIKEY=WPCVRWVBBXIRMA-WNWIJWBNSA-N
INCHI=InChI=1S/C17H14O7/c1-20-9-6-10-12(8-3-5-22-17(8)23-10)14-11(9)7-2-4-21-15(18)13(7)16(19)24-14/h6,8,17H,2-5H2,1H3/t8-,17+/m0/s1
SMILES=COC1=C2C3=C(C(=O)OCC3)C(=O)OC2=C4[C@@H]5CCO[C@@H]5OC4=C1
INSTRUMENT_TYPE=LC-ESI-ITFT
INSTRUMENT=Q-Exactive Orbitrap Thermo Scientific
COLLISION_ENERGY=30(NCE)
FORMULA=C17H14O7
PARENT=353.0626
SPLASH=splash10-0udi-0009000000-4306966ee864740f58e1
NUM_PEAKS=1
COMPOUND_NAME=Aflatoxin G2
SPECTRUM_ID=MSBNK-AAFC-AC000041
ADDUCT=[M+Na]+
MS_LEVEL=MS2
PRECURSOR_MZ=353.0626
IONMODE=positive
NOMINAL_MASS=330
PARENT_MASS=330.07393
353.0632 999.0
END IONS

BEGIN IONS
INCHIKEY=HNMWDXUKPJZOQD-XPBDJYBLSA-N
INCHI=InChI=1S/C18H16O9/c1-18-5-6-11(8(26-18)4-10(27-18)17(23)24)16(22)12-7(19)3-9(25-2)15(21)13(12)14(6)20/h3,8,10,20,22H,4-5H2,1-2H3,(H,23,24)/t8?,10-,18?/m1/s1
SMILES=CC12CC3=C(C4=C(C(=O)C=C(C4=O)OC)C(=C3C(O1)C[C@@H](O2)C(=O)O)O)O
INSTRUMENT_TYPE=LC-ESI-ITFT
INSTRUMENT=Q-Exactive Orbitrap Thermo Scientific
COLLISION_ENERGY=50(NCE)
FORMULA=C18H16O9
PARENT=377.0861
SPLASH=splash10-05g0-0090000000-9181ef5ed5178451df1b
NUM_PEAKS=45
COMPOUND_NAME=Isomarticin
SPECTRUM_ID=MSBNK-AAFC-AC000164
ADDUCT=[M+H]+
MS_LEVEL=MS2
PRECURSOR_MZ=377.0861
IONMODE=positive
NOMINAL_MASS=376
PARENT_MASS=376.07941
167.0339 49.0
169.0648 38.0
183.0441 46.0
185.0597 35.0
189.0546 50.0
197.0597 80.0
199.039 37.0
201.0546 36.0
211.039 104.0
213.0546 45.0
215.0703 43.0
216.0417 41.0
217.0495 106.0
225.0546 163.0
227.0339 36.0
228.0417 161.0
229.0495 109.0
231.0652 111.0
239.0339 93.0
239.0703 42.0
241.0495 60.0
242.0574 109.0
243.0652 276.0
244.0366 78.0
245.0444 225.0
253.0495 254.0
255.0652 36.0
256.0366 219.0
257.0444 168.0
257.0808 83.0
259.0601 515.0
260.0679 37.0
261.0757 35.0
267.0652 67.0
269.0444 43.0
270.0523 210.0
271.0601 999.0
273.0393 40.0
281.0444 32.0
285.0757 232.0
287.055 551.0
295.0601 90.0
298.0472 61.0
299.055 182.0
313.0707 240.0
END IONS

BEGIN IONS
SYNON=3-[(3S,6R,9S,12S,15R,18S,21S,25R)-9-(carboxymethyl)-3,6,15,18-tetrakis(2-methylpropyl)-25-(10-methylundecyl)-2,5,8,11,14,17,20,23-octaoxo-12-propan-2-yl-1-oxa-4,7,10,13,16,19,22-heptazacyclopentacos-21-yl]propanoic acid
INCHIKEY=NJGWOFRZMQRKHT-WGVNQGGSSA-N
INCHI=InChI=1S/C53H93N7O13/c1-30(2)20-18-16-14-13-15-17-19-21-36-28-43(61)54-37(22-23-44(62)63)47(66)55-38(24-31(3)4)48(67)57-40(26-33(7)8)51(70)60-46(35(11)12)52(71)58-41(29-45(64)65)50(69)56-39(25-32(5)6)49(68)59-42(27-34(9)10)53(72)73-36/h30-42,46H,13-29H2,1-12H3,(H,54,61)(H,55,66)(H,56,69)(H,57,67)(H,58,71)(H,59,68)(H,60,70)(H,62,63)(H,64,65)/t36-,37+,38+,39-,40-,41+,42+,46+/m1/s1
SMILES=CC(C)CCCCCCCCC[C@@H]1CC(=O)N[C@H](C(=O)N[C@H](C(=O)N[C@@H](C(=O)N[C@H](C(=O)N[C@H](C(=O)N[C@@H](C(=O)N[C@H](C(=O)O1)CC(C)C)CC(C)C)CC(=O)O)C(C)C)CC(C)C)CC(C)C)CCC(=O)O
INSTRUMENT_TYPE=LC-ESI-ITFT
INSTRUMENT=Q-Exactive Orbitrap Thermo Scientific
COLLISION_ENERGY=20(NCE)
FORMULA=C53H93N7O13
PARENT=1058.6718
SPLASH=splash10-0a4i-9000000000-6549365e3d46cbe33519
NUM_PEAKS=1
COMPOUND_NAME=Surfactin C
SPECTRUM_ID=MSBNK-AAFC-AC000732
ADDUCT=[M+Na]+
MS_LEVEL=MS2
PRECURSOR_MZ=1058.6718
IONMODE=positive
NOMINAL_MASS=1036
PARENT_MASS=1035.68314
1058.6724 999.0
END IONS

BEGIN IONS
INCHIKEY=MIZMDSVSLSIMSC-VYLWARHZSA-N
INCHI=InChI=1S/C33H57N3O9/c1-16(2)22-31(40)43-26(20(9)10)29(38)35(14)24(18(5)6)33(42)45-27(21(11)12)30(39)36(15)23(17(3)4)32(41)44-25(19(7)8)28(37)34(22)13/h16-27H,1-15H3/t22-,23-,24-,25+,26+,27+/m0/s1
SMILES=CC(C)[C@H]1C(=O)O[C@@H](C(=O)N([C@H](C(=O)O[C@@H](C(=O)N([C@H](C(=O)O[C@@H](C(=O)N1C)C(C)C)C(C)C)C)C(C)C)C(C)C)C)C(C)C
INSTRUMENT_TYPE=LC-ESI-ITFT
INSTRUMENT=Q-Exactive Orbitrap Thermo Scientific
COLLISION_ENERGY=10(NCE)
FORMULA=C33H57N3O9
PARENT=640.4162
SPLASH=splash10-0006-0200009000-454bf9e6cfef014bc608
NUM_PEAKS=3
COMPOUND_NAME=Enniatin B
SPECTRUM_ID=MSBNK-AAFC-AC000453
ADDUCT=[M+H]+
MS_LEVEL=MS2
PRECURSOR_MZ=640.4162
IONMODE=positive
NOMINAL_MASS=639
PARENT_MASS=639.40948
196.1332 250.0
214.1438 89.0
640.4168 999.0
END IONS

BEGIN IONS
SYNON=N-[(1S)-1-(4-methoxy-6-oxopyran-2-yl)-2-phenylethyl]acetamide
INCHIKEY=VFMQMACUYWGDOJ-AWEZNQCLSA-N
INCHI=InChI=1S/C16H17NO4/c1-11(18)17-14(8-12-6-4-3-5-7-12)15-9-13(20-2)10-16(19)21-15/h3-7,9-10,14H,8H2,1-2H3,(H,17,18)/t14-/m0/s1
SMILES=CC(=O)N[C@@H](CC1=CC=CC=C1)C2=CC(=CC(=O)O2)OC
INSTRUMENT_TYPE=LC-ESI-ITFT
INSTRUMENT=Q-Exactive Orbitrap Thermo Scientific
COLLISION_ENERGY=20(NCE)
FORMULA=C16H17NO4
PARENT=288.1225
SPLASH=splash10-0002-0390000000-477e3cf232c87873ea7a
NUM_PEAKS=6
COMPOUND_NAME=Pyrophen
SPECTRUM_ID=MSBNK-AAFC-AC000853
ADDUCT=[M+H]+
MS_LEVEL=MS2
PRECURSOR_MZ=288.1225
IONMODE=positive
NOMINAL_MASS=287
PARENT_MASS=287.11575
91.0542 99.0
125.0233 281.0
155.0577 40.0
185.0961 65.0
229.0859 74.0
246.1125 999.0
END IONS

BEGIN IONS
SYNON=2,4-Dihydroxy-3,5-dimethyl-6-[(2S)-3-oxo-2-butanyl]benzaldehyde
INCHIKEY=CBUOBMSAFIYYEJ-ZCFIWIBFSA-N
INCHI=InChI=1S/C13H16O4/c1-6(9(4)15)11-7(2)12(16)8(3)13(17)10(11)5-14/h5-6,16-17H,1-4H3/t6-/m1/s1
SMILES=Cc1c(c(c(c(c1O)C)O)C=O)[C@H](C)C(=O)C
INSTRUMENT_TYPE=LC-ESI-ITFT
INSTRUMENT=Q-Exactive Orbitrap Thermo Scientific
COLLISION_ENERGY=40(NCE)
FORMULA=C13H16O4
PARENT=235.0981
SPLASH=splash10-014r-0960000000-5c45fd0783275cabc8c1
NUM_PEAKS=11
COMPOUND_NAME=Redoxcitrinin
SPECTRUM_ID=MSBNK-AAFC-AC000804
ADDUCT=[M-H]-
MS_LEVEL=MS2
PRECURSOR_MZ=235.0981
IONMODE=negative
NOMINAL_MASS=236
PARENT_MASS=236.10486
109.0642 56.0
149.0957 43.0
151.0749 133.0
165.0921 999.0
191.0714 78.0
191.1065 60.0
193.087 302.0
207.1016 273.0
217.087 63.0
233.0819 58.0
235.0966 733.0
END IONS

BEGIN IONS
SYNON=(8alpha)-5'alpha-Benzyl-12'-hydroxy-2'-isopropylergotaman-3',6',18-trione
INCHIKEY=HEFIYUQVAZFDEE-NASJTFDLSA-N
INCHI=InChI=1S/C35H39N5O5/c1-20(2)34(37-31(41)23-16-25-24-11-7-12-26-30(24)22(18-36-26)17-27(25)38(3)19-23)33(43)40-28(15-21-9-5-4-6-10-21)32(42)39-14-8-13-29(39)35(40,44)45-34/h4-7,9-12,16,18,20,23,27-29,36,44H,8,13-15,17,19H2,1-3H3,(H,37,41)/t23-,27+,28-,29-,34+,35-/m0/s1
SMILES=CC(C)[C@@]1(C(=O)N2[C@H](C(=O)N3CCC[C@H]3[C@@]2(O1)O)CC4=CC=CC=C4)NC(=O)[C@@H]5CN([C@@H]6CC7=CNC8=CC=CC(=C78)C6=C5)C
INSTRUMENT_TYPE=LC-ESI-ITFT
INSTRUMENT=Q-Exactive Orbitrap Thermo Scientific
COLLISION_ENERGY=55(NCE)
FORMULA=C35H39N5O5
PARENT=610.3018
SPLASH=splash10-0ab9-1790000000-3cf902ce6558c5e9cc7a
NUM_PEAKS=22
COMPOUND_NAME=Ergocristinine
SPECTRUM_ID=MSBNK-AAFC-AC000361
ADDUCT=[M+H]+
MS_LEVEL=MS2
PRECURSOR_MZ=610.3018
IONMODE=positive
NOMINAL_MASS=609
PARENT_MASS=609.29511
70.0659 168.0
91.0542 134.0
98.06 39.0
120.0808 186.0
167.073 91.0
180.0808 615.0
181.0886 33.0
182.0964 72.0
187.123 76.0
190.0651 32.0
191.073 332.0
192.0808 301.0
194.0964 70.0
207.0679 287.0
207.0917 92.0
208.0757 999.0
208.0995 142.0
221.1073 191.0
223.123 404.0
224.1281 31.0
225.1022 38.0
277.1322 65.0
END IONS

BEGIN IONS
SYNON=(6aS)-5-chloro-9-[(2S,3R)-3-hydroxy-2-methylbutanoyl]-6a-methyl-3-[(E,3S)-3-methylpent-1-enyl]furo[2,3-h]isochromene-6,8-dione
INCHIKEY=HWSQVPGTQUYLEQ-CCBHEJLASA-N
INCHI=InChI=1S/C23H25ClO6/c1-6-11(2)7-8-14-9-15-16(10-29-14)18-17(20(26)12(3)13(4)25)22(28)30-23(18,5)21(27)19(15)24/h7-13,25H,6H2,1-5H3/b8-7+/t11-,12-,13+,23-/m0/s1
SMILES=CC[C@H](C)/C=C/C1=CC2=C(C(=O)[C@@]3(C(=C(C(=O)O3)C(=O)[C@@H](C)[C@@H](C)O)C2=CO1)C)Cl
INSTRUMENT_TYPE=LC-ESI-ITFT
INSTRUMENT=Q-Exactive Orbitrap Thermo Scientific
COLLISION_ENERGY=10(NCE)
FORMULA=C23H25ClO6
PARENT=433.1407
SPLASH=splash10-001i-0001900000-9066dc6a8d86933938ee
NUM_PEAKS=3
COMPOUND_NAME=Chaetoviridin A
SPECTRUM_ID=MSBNK-AAFC-AC000545
ADDUCT=[M+H]+
MS_LEVEL=MS2
PRECURSOR_MZ=433.1407
IONMODE=positive
NOMINAL_MASS=432
PARENT_MASS=432.13396
333.0888 149.0
405.1463 55.0
433.1412 999.0
END IONS

BEGIN IONS
SYNON=Muconomycin B
INCHIKEY=GXCGYHWSYNQVHU-UGAPSZEOSA-N
INCHI=InChI=1S/C27H32O8/c1-17-8-10-26-15-32-24(30)13-18(2)9-11-31-22(28)6-4-5-7-23(29)35-19-14-21(34-20(26)12-17)27(16-33-27)25(19,26)3/h4-7,12-13,19-21H,8-11,14-16H2,1-3H3/b6-4+,7-5+,18-13+/t19-,20-,21-,25-,26-,27+/m1/s1
SMILES=CC1=C[C@@H]2[C@@]3(CC1)COC(=O)/C=C(/CCOC(=O)/C=C/C=C/C(=O)O[C@H]4[C@]3([C@]5(CO5)[C@@H](C4)O2)C)\C
INSTRUMENT_TYPE=LC-ESI-ITFT
INSTRUMENT=Q-Exactive Orbitrap Thermo Scientific
COLLISION_ENERGY=20(NCE)
FORMULA=C27H32O8
PARENT=507.1984
SPLASH=splash10-0a4i-0000090000-0a326a8035226e1165a7
NUM_PEAKS=2
COMPOUND_NAME=Verrucarin J
SPECTRUM_ID=MSBNK-AAFC-AC000264
ADDUCT=[M+Na]+
MS_LEVEL=MS2
PRECURSOR_MZ=507.1984
IONMODE=positive
NOMINAL_MASS=484
PARENT_MASS=484.20971
135.0417 31.0
507.1989 999.0
END IONS

BEGIN IONS
SYNON=(1S,7a'S,11a'R)-5',6',7a',10',11a'-Pentahydroxy-3'-methoxy-2,6,6-trimethyl-7',8',12'-trioxo-7',7a',8',11',11a',12'-hexahydro-1'H-spiro[cyclohex-2-ene-1,2'-cyclopenta[de]tetracene]-9'-carboxamide
INCHIKEY=FNSQKFOXORBCCC-WBWZXODPSA-N
INCHI=InChI=1S/C30H31NO10/c1-11-6-5-7-27(2,3)28(11)9-12-16-18(13(32)8-15(41-4)21(16)28)22(34)20-17(12)23(35)29(39)10-14(33)19(26(31)38)24(36)30(29,40)25(20)37/h6,8,23,32,34-36,39-40H,5,7,9-10H2,1-4H3,(H2,31,38)/t23-,28-,29-,30+/m0/s1
SMILES=CC1=CCCC([C@@]12CC3=C4[C@@H]([C@]5(CC(=O)C(=C([C@]5(C(=O)C4=C(C6=C3C2=C(C=C6O)OC)O)O)O)C(=O)N)O)O)(C)C
INSTRUMENT_TYPE=LC-ESI-ITFT
INSTRUMENT=Q-Exactive Orbitrap Thermo Scientific
COLLISION_ENERGY=55(NCE)
FORMULA=C30H31NO10
PARENT=564.188
SPLASH=splash10-022a-0019000000-b9d11762592a07e64930
NUM_PEAKS=154
COMPOUND_NAME=Viridicatumtoxin
SPECTRUM_ID=MSBNK-AAFC-AC000766
ADDUCT=[M-H]-
MS_LEVEL=MS2
PRECURSOR_MZ=564.188
IONMODE=negative
NOMINAL_MASS=565
PARENT_MASS=565.19478
68.9965 87.0
95.0123 42.0
99.0069 47.0
111.0071 155.0
123.0069 204.0
135.0088 39.0
139.0018 164.0
141.0175 158.0
149.9942 85.0
150.017 92.0
166.9986 227.0
237.0557 35.0
239.035 43.0
239.0714 31.0
249.0557 111.0
250.0635 86.0
263.0714 48.0
264.0792 148.0
265.0506 139.0
265.087 203.0
275.0714 41.0
277.0506 39.0
278.0584 37.0
279.0663 114.0
280.0741 299.0
287.0714 50.0
289.0506 38.0
289.087 45.0
290.0948 35.0
291.0663 31.0
291.1027 31.0
293.0455 304.0
293.0819 88.0
295.0248 99.0
295.0976 104.0
299.0714 40.0
300.0792 42.0
301.087 101.0
302.0948 98.0
303.0663 253.0
303.1027 77.0
304.0741 48.0
305.0455 118.0
305.0819 84.0
305.1183 154.0
307.0612 129.0
308.069 154.0
309.0404 40.0
313.087 87.0
314.0948 43.0
315.0663 109.0
315.1027 60.0
316.0741 43.0
317.0455 273.0
317.0819 168.0
317.115 32.0
318.0534 36.0
318.0897 288.0
319.0248 108.0
319.0612 167.0
319.134 43.0
320.069 149.0
320.1418 156.0
321.0768 332.0
322.1574 37.0
325.087 35.0
326.0948 244.0
327.0663 227.0
328.0741 47.0
329.0455 117.0
329.0819 179.0
329.1183 39.0
331.0612 606.0
331.0976 121.0
332.069 45.0
333.049 275.0
333.0768 259.0
333.1132 112.0
334.0483 68.0
334.0847 236.0
335.0197 47.0
335.0561 135.0
335.0925 52.0
335.1653 82.0
336.1367 106.0
341.0819 147.0
342.0897 368.0
343.0612 143.0
343.0976 103.0
344.069 194.0
345.0404 64.0
345.0768 515.0
346.0483 41.0
346.0847 999.0
347.0561 197.0
347.0925 82.0
348.0639 446.0
349.0717 130.0
351.051 94.0
351.1602 54.0
353.0819 39.0
355.0612 484.0
355.0976 47.0
357.0404 148.0
357.071 171.0
357.1132 35.0
358.0847 92.0
359.0561 81.0
359.0925 239.0
360.0639 49.0
360.1003 96.0
361.0353 38.0
361.0717 116.0
361.1081 508.0
362.0796 137.0
363.0874 671.0
363.1265 39.0
364.1343 34.0
368.069 83.0
369.0768 285.0
370.0847 898.0
371.0561 492.0
371.0925 58.0
372.0639 406.0
373.0717 694.0
374.0796 31.0
375.051 105.0
377.0667 51.0
377.1394 455.0
379.1551 82.0
383.0925 52.0
383.1316 38.0
385.0659 63.0
385.1108 463.0
386.0796 216.0
387.0874 319.0
387.1238 57.0
388.0952 168.0
390.0745 237.0
401.103 106.0
402.1473 48.0
404.1265 47.0
411.1238 91.0
413.0667 107.0
414.0745 80.0
417.1707 141.0
419.15 743.0
425.1394 46.0
427.1187 85.0
429.137 44.0
441.1707 108.0
443.15 127.0
455.1163 38.0
461.1606 93.0
END IONS

BEGIN IONS
SYNON=3,7-dihydroxy-9-methoxy-1-methylbenzo[c]chromen-6-one
INCHIKEY=LCSDQFNUYFTXMT-UHFFFAOYSA-N
INCHI=InChI=1S/C15H12O5/c1-7-3-8(16)4-12-13(7)10-5-9(19-2)6-11(17)14(10)15(18)20-12/h3-6,16-17H,1-2H3
SMILES=CC1=CC(=CC2=C1C3=CC(=CC(=C3C(=O)O2)O)OC)O
INSTRUMENT_TYPE=LC-ESI-ITFT
INSTRUMENT=Q-Exactive Orbitrap Thermo Scientific
COLLISION_ENERGY=30(NCE)
FORMULA=C15H12O5
PARENT=273.0752
SPLASH=splash10-00di-0090000000-ff0e7b4f08445a7e3049
NUM_PEAKS=1
COMPOUND_NAME=Alternariol methyl ether
SPECTRUM_ID=MSBNK-AAFC-AC000063
ADDUCT=[M+H]+
MS_LEVEL=MS2
PRECURSOR_MZ=273.0752
IONMODE=positive
NOMINAL_MASS=272
PARENT_MASS=272.06846
273.0757 999.0
END IONS

BEGIN IONS
SYNON=(-)-N-((5-Chloro-8-hydroxy-3-methyl-1-oxo-7-isochromanyl)carbonyl)-3-phenylalanine
INCHIKEY=RWQKHEORZBHNRI-BMIGLBTASA-N
INCHI=InChI=1S/C20H18ClNO6/c1-10-7-12-14(21)9-13(17(23)16(12)20(27)28-10)18(24)22-15(19(25)26)8-11-5-3-2-4-6-11/h2-6,9-10,15,23H,7-8H2,1H3,(H,22,24)(H,25,26)/t10-,15+/m1/s1
SMILES=C[C@@H]1CC2=C(C=C(C(=C2C(=O)O1)O)C(=O)N[C@@H](CC3=CC=CC=C3)C(=O)O)Cl
INSTRUMENT_TYPE=LC-ESI-ITFT
INSTRUMENT=Q-Exactive Orbitrap Thermo Scientific
COLLISION_ENERGY=30(NCE)
FORMULA=C20H18ClNO6
PARENT=426.0709
SPLASH=splash10-03di-0090000000-e21ed1f955c14de83e64
NUM_PEAKS=2
COMPOUND_NAME=Ochratoxin A
SPECTRUM_ID=MSBNK-AAFC-AC000211
ADDUCT=[M+Na]+
MS_LEVEL=MS2
PRECURSOR_MZ=426.0709
IONMODE=positive
NOMINAL_MASS=403
PARENT_MASS=403.08225
260.9925 999.0
279.0031 40.0
END IONS

BEGIN IONS
SYNON=3,7-dihydroxy-9-methoxy-1-methylbenzo[c]chromen-6-one
INCHIKEY=LCSDQFNUYFTXMT-UHFFFAOYSA-N
INCHI=InChI=1S/C15H12O5/c1-7-3-8(16)4-12-13(7)10-5-9(19-2)6-11(17)14(10)15(18)20-12/h3-6,16-17H,1-2H3
SMILES=CC1=CC(=CC2=C1C3=CC(=CC(=C3C(=O)O2)O)OC)O
INSTRUMENT_TYPE=LC-ESI-ITFT
INSTRUMENT=Q-Exactive Orbitrap Thermo Scientific
COLLISION_ENERGY=50(NCE)
FORMULA=C15H12O5
PARENT=273.0752
SPLASH=splash10-00di-0190000000-c3da3c6cc40ef73c403c
NUM_PEAKS=16
COMPOUND_NAME=Alternariol methyl ether
SPECTRUM_ID=MSBNK-AAFC-AC000065
ADDUCT=[M+H]+
MS_LEVEL=MS2
PRECURSOR_MZ=273.0752
IONMODE=positive
NOMINAL_MASS=272
PARENT_MASS=272.06846
175.0754 48.0
185.0597 43.0
197.0597 44.0
199.0754 125.0
203.0703 32.0
212.0468 34.0
213.0546 63.0
214.0624 54.0
227.0703 128.0
230.0574 121.0
231.0652 35.0
240.0417 42.0
241.0495 89.0
255.0652 95.0
258.0523 198.0
273.0757 999.0
END IONS

BEGIN IONS
SYNON=(3S,6R,9S,12R,15S,18R,21S,24R)-4,10,16,22-tetramethyl-3,9,15,21-tetrakis(2-methylpropyl)-6,12,18,24-tetra(propan-2-yl)-1,7,13,19-tetraoxa-4,10,16,22-tetrazacyclotetracosane-2,5,8,11,14,17,20,23-octone
INCHIKEY=QVZZPLDJERFENQ-NKTUOASPSA-N
INCHI=InChI=1S/C48H84N4O12/c1-25(2)21-33-45(57)61-38(30(11)12)42(54)50(18)35(23-27(5)6)47(59)63-40(32(15)16)44(56)52(20)36(24-28(7)8)48(60)64-39(31(13)14)43(55)51(19)34(22-26(3)4)46(58)62-37(29(9)10)41(53)49(33)17/h25-40H,21-24H2,1-20H3/t33-,34-,35-,36-,37+,38+,39+,40+/m0/s1
SMILES=CC(C)C[C@H]1C(=O)O[C@@H](C(=O)N([C@H](C(=O)O[C@@H](C(=O)N([C@H](C(=O)O[C@@H](C(=O)N([C@H](C(=O)O[C@@H](C(=O)N1C)C(C)C)CC(C)C)C)C(C)C)CC(C)C)C)C(C)C)CC(C)C)C)C(C)C
INSTRUMENT_TYPE=LC-ESI-ITFT
INSTRUMENT=Q-Exactive Orbitrap Thermo Scientific
COLLISION_ENERGY=20(NCE)
FORMULA=C48H84N4O12
PARENT=926.6419
SPLASH=splash10-03di-0090100001-cf99407b2f4438131741
NUM_PEAKS=9
COMPOUND_NAME=Bassanolide
SPECTRUM_ID=MSBNK-AAFC-AC000416
ADDUCT=[M+NH4]+
MS_LEVEL=MS2
PRECURSOR_MZ=926.6419
IONMODE=positive
NOMINAL_MASS=909
PARENT_MASS=908.60858
200.1645 33.0
210.1489 999.0
228.1594 450.0
455.3129 138.0
473.3235 38.0
682.4664 88.0
700.477 46.0
782.5188 44.0
909.6159 170.0
END IONS

BEGIN IONS
SYNON=(1S,3R,3aS,4R,6R,8aR,9R)-Decahydro-1,5,5,8a-tetramethyl-1,4-methanoazulene-3,6,9-triol
INCHIKEY=XFKGEQRMYJCXFK-YTAGIEBCSA-N
INCHI=InChI=1S/C15H26O3/c1-13(2)9(17)5-6-14(3)10-8(16)7-15(14,4)12(18)11(10)13/h8-12,16-18H,5-7H2,1-4H3/t8-,9-,10+,11+,12?,14-,15-/m1/s1
SMILES=C[C@@]12CC[C@H](C([C@H]3[C@@H]1[C@@H](C[C@@]2(C3O)C)O)(C)C)O
INSTRUMENT_TYPE=LC-ESI-ITFT
INSTRUMENT=Q-Exactive Orbitrap Thermo Scientific
COLLISION_ENERGY=40(NCE)
FORMULA=C15H26O3
PARENT=237.1844
SPLASH=splash10-0a6s-2910000000-bcb4b0663bf0b7fbb6ed
NUM_PEAKS=45
COMPOUND_NAME=5-hydroxyculmorin
SPECTRUM_ID=MSBNK-AAFC-AC000104
ADDUCT=[M-H2O+H]+
MS_LEVEL=MS2
PRECURSOR_MZ=237.1844
IONMODE=positive
NOMINAL_MASS=254
PARENT_MASS=254.18821
59.0498 43.0
67.0542 78.0
69.0699 219.0
79.0542 40.0
81.0699 213.0
83.0855 118.0
85.0648 68.0
91.0542 58.0
93.0699 318.0
95.0491 45.0
95.0855 838.0
97.0648 59.0
97.1012 45.0
99.0804 33.0
105.0699 207.0
107.0855 564.0
109.0648 43.0
109.1012 546.0
111.0804 97.0
117.0699 73.0
119.0855 543.0
121.1012 596.0
123.0804 57.0
123.1168 182.0
125.0961 31.0
131.0855 155.0
133.1012 344.0
135.0804 90.0
135.1168 326.0
137.0961 422.0
137.1325 40.0
145.1012 423.0
147.1168 179.0
149.0961 142.0
149.1325 97.0
159.1168 531.0
161.1325 239.0
163.1118 101.0
173.1325 245.0
175.1481 999.0
177.1638 299.0
191.1795 167.0
201.1638 541.0
219.1744 385.0
237.1849 98.0
END IONS

BEGIN IONS
SYNON=(3R,4S)-6-hydroxy-3,4,5-trimethyl-8-oxo-3,4-dihydroisochromene-7-carboxylic acid
INCHIKEY=CBGDIJWINPWWJW-IYSWYEEDSA-N
INCHI=InChI=1S/C13H14O5/c1-5-7(3)18-4-8-9(5)6(2)11(14)10(12(8)15)13(16)17/h4-5,7,14H,1-3H3,(H,16,17)/t5-,7-/m1/s1
SMILES=C[C@@H]1[C@H](OC=C2C1=C(C(=C(C2=O)C(=O)O)O)C)C
INSTRUMENT_TYPE=LC-ESI-ITFT
INSTRUMENT=Q-Exactive Orbitrap Thermo Scientific
COLLISION_ENERGY=30(NCE)
FORMULA=C13H14O5
PARENT=251.0908
SPLASH=splash10-0f89-0090000000-969b7c80212480c05817
NUM_PEAKS=2
COMPOUND_NAME=Citrinin
SPECTRUM_ID=MSBNK-AAFC-AC000432
ADDUCT=[M+H]+
MS_LEVEL=MS2
PRECURSOR_MZ=251.0908
IONMODE=positive
NOMINAL_MASS=250
PARENT_MASS=250.08411
233.0808 999.0
251.0914 595.0
END IONS

BEGIN IONS
INCHIKEY=JSKXQQKSUOVSKS-UHFFFAOYSA-N
INCHI=InChI=1S/C19H26O8/c1-9-5-13-18(7-24-10(2)20,15(23)14(9)22)17(4)6-12(26-11(3)21)16(27-13)19(17)8-25-19/h5,12-16,22-23H,6-8H2,1-4H3
SMILES=CC1=CC2C(C(C1O)O)(C3(CC(C(C34CO4)O2)OC(=O)C)C)COC(=O)C
INSTRUMENT_TYPE=LC-ESI-ITFT
INSTRUMENT=Q-Exactive Orbitrap Thermo Scientific
COLLISION_ENERGY=20(NCE)
FORMULA=C19H26O8
PARENT=365.1589
SPLASH=splash10-014i-0329000000-c94ec687777c81509fe1
NUM_PEAKS=13
COMPOUND_NAME=7,8-Dihydroxy calonectrin
SPECTRUM_ID=MSBNK-AAFC-AC000403
ADDUCT=[M-H2O+H]+
MS_LEVEL=MS2
PRECURSOR_MZ=365.1589
IONMODE=positive
NOMINAL_MASS=382
PARENT_MASS=382.16276
109.0648 77.0
127.0754 36.0
137.0597 46.0
171.1168 32.0
187.1118 123.0
199.1118 73.0
215.1067 36.0
217.1223 53.0
227.1067 41.0
245.1172 65.0
263.1278 42.0
305.1384 34.0
365.1595 999.0
END IONS

BEGIN IONS
SYNON=2,6-Epoxy-2H-naphth(2,3-d)oxocin-4-carboxylic acid, 1,4,5,6,7,12-hexahydro-8,11-dihydroxy-10-methoxy-2-methyl-7,12-dioxo-, (2alpha,4alpha,6alpha)-(+)-
INCHIKEY=HNMWDXUKPJZOQD-UHFFFAOYSA-N
INCHI=InChI=1S/C18H16O9/c1-18-5-6-11(8(26-18)4-10(27-18)17(23)24)16(22)12-7(19)3-9(25-2)15(21)13(12)14(6)20/h3,8,10,20,22H,4-5H2,1-2H3,(H,23,24)
SMILES=CC12CC3=C(C4=C(C(=O)C=C(C4=O)OC)C(=C3C(O1)CC(O2)C(=O)O)O)O
INSTRUMENT_TYPE=LC-ESI-ITFT
INSTRUMENT=Q-Exactive Orbitrap Thermo Scientific
COLLISION_ENERGY=55(NCE)
FORMULA=C18H16O9
PARENT=375.0727
SPLASH=splash10-00dr-0090000000-63b9a4e9215634aed455
NUM_PEAKS=21
COMPOUND_NAME=Marticin
SPECTRUM_ID=MSBNK-AAFC-AC000534
ADDUCT=[M-H]-
MS_LEVEL=MS2
PRECURSOR_MZ=375.0727
IONMODE=negative
NOMINAL_MASS=376
PARENT_MASS=376.07941
227.035 51.0
231.0299 53.0
240.0428 66.0
241.0506 58.0
242.0221 61.0
243.0299 306.0
244.0377 158.0
255.0299 92.0
257.0455 108.0
259.0248 190.0
268.0377 98.0
269.0455 269.0
270.017 94.0
270.0534 83.0
271.0248 467.0
272.0326 862.0
273.0404 89.0
285.0404 999.0
286.0483 163.0
297.0404 76.0
298.0483 130.0
END IONS

BEGIN IONS
SYNON=(2E,11S)-15,17-dihydroxy-11-methyl-12-oxabicyclo[12.4.0]octadeca-1(14),2,15,17-tetraene-7,13-dione
INCHIKEY=MBMQEIFVQACCCH-QBODLPLBSA-N
INCHI=InChI=1S/C18H22O5/c1-12-6-5-9-14(19)8-4-2-3-7-13-10-15(20)11-16(21)17(13)18(22)23-12/h3,7,10-12,20-21H,2,4-6,8-9H2,1H3/b7-3+/t12-/m0/s1
SMILES=C[C@H]1CCCC(=O)CCC/C=C/C2=CC(=CC(=C2C(=O)O1)O)O
INSTRUMENT_TYPE=LC-ESI-ITFT
INSTRUMENT=Q-Exactive Orbitrap Thermo Scientific
COLLISION_ENERGY=10(NCE)
FORMULA=C18H22O5
PARENT=319.1535
SPLASH=splash10-0gc0-1059000000-60a9a235046094d44d91
NUM_PEAKS=14
COMPOUND_NAME=Zearalenone
SPECTRUM_ID=MSBNK-AAFC-AC000288
ADDUCT=[M+H]+
MS_LEVEL=MS2
PRECURSOR_MZ=319.1535
IONMODE=positive
NOMINAL_MASS=318
PARENT_MASS=318.14672
85.0648 122.0
97.0648 135.0
165.0182 34.0
187.0754 95.0
217.0859 61.0
231.0652 115.0
249.0757 44.0
255.138 43.0
257.1536 51.0
265.1223 85.0
267.0851 125.0
283.1329 641.0
301.1434 859.0
319.154 999.0
END IONS

BEGIN IONS
SYNON=(3beta,4alpha,7alpha)-3,7,15-Trihydroxy-8-oxo-12,13-epoxytrichothec-9-en-4-yl acetate
INCHIKEY=XGCUCFKWVIWWNW-CAYGJDLQSA-N
INCHI=InChI=1S/C17H22O8/c1-7-4-9-16(5-18,12(22)10(7)20)15(3)13(24-8(2)19)11(21)14(25-9)17(15)6-23-17/h4,9,11-14,18,21-22H,5-6H2,1-3H3/t9-,11-,12-,13-,14-,15-,16-,17+/m1/s1
SMILES=CC1=C[C@@H]2[C@]([C@@H](C1=O)O)([C@]3([C@@H]([C@H]([C@H]([C@@]34CO4)O2)O)OC(=O)C)C)CO
INSTRUMENT_TYPE=LC-ESI-ITFT
INSTRUMENT=Q-Exactive Orbitrap Thermo Scientific
COLLISION_ENERGY=50(NCE)
FORMULA=C17H22O8
PARENT=355.1382
SPLASH=splash10-002r-1910000000-2cdc9dfa758f427ab896
NUM_PEAKS=67
COMPOUND_NAME=Fusarenone-X
SPECTRUM_ID=MSBNK-AAFC-AC000144
ADDUCT=[M+H]+
MS_LEVEL=MS2
PRECURSOR_MZ=355.1382
IONMODE=positive
NOMINAL_MASS=354
PARENT_MASS=354.13145
67.0542 49.0
69.0335 110.0
71.0491 92.0
79.0542 97.0
81.0699 79.0
83.0491 45.0
85.0284 60.0
91.0542 139.0
95.0491 106.0
97.0648 53.0
99.0441 109.0
105.0699 80.0
107.0491 117.0
109.0648 189.0
117.0699 71.0
119.0855 215.0
121.0648 184.0
123.0441 131.0
125.0597 127.0
128.0621 38.0
129.0699 84.0
131.0855 195.0
133.0648 58.0
135.0804 116.0
137.0597 999.0
141.0546 40.0
141.0699 38.0
142.0777 61.0
143.0855 87.0
144.057 32.0
145.0648 83.0
145.1012 123.0
147.0804 234.0
149.0597 69.0
149.0961 83.0
151.039 31.0
151.0754 47.0
153.0546 51.0
155.0855 100.0
157.1012 49.0
158.0726 105.0
159.0804 350.0
161.0597 141.0
161.0961 84.0
163.0754 133.0
165.091 64.0
171.0804 72.0
173.0961 157.0
174.0675 44.0
175.0754 740.0
177.091 135.0
183.0804 90.0
185.0961 61.0
186.0675 58.0
187.0754 198.0
188.0832 38.0
189.091 142.0
191.0703 60.0
198.0675 46.0
199.0754 56.0
201.091 304.0
205.0859 145.0
211.0754 110.0
213.091 40.0
214.0624 94.0
217.0859 68.0
229.0859 144.0
END IONS

BEGIN IONS
INCHIKEY=OUMWCYMRLMEZJH-VOXRAUTJSA-N
INCHI=InChI=1S/C32H36N2O5/c1-17-8-7-10-22-29-31(4,39-29)19(3)27-24(15-20-16-33-23-11-6-5-9-21(20)23)34-30(38)32(22,27)26(36)13-12-25(35)28(37)18(2)14-17/h5-7,9-14,16-17,19,22,24,27-29,33,37H,8,15H2,1-4H3,(H,34,38)/b10-7+,13-12+,18-14+/t17-,19-,22-,24-,27-,28+,29-,31+,32+/m0/s1
SMILES=C[C@H]\1C/C=C/[C@H]2[C@H]3[C@](O3)([C@H]([C@@H]4[C@@]2(C(=O)/C=C/C(=O)[C@@H](/C(=C1)/C)O)C(=O)N[C@H]4CC5=CNC6=CC=CC=C65)C)C
INSTRUMENT_TYPE=LC-ESI-ITFT
INSTRUMENT=Q-Exactive Orbitrap Thermo Scientific
COLLISION_ENERGY=10(NCE)
FORMULA=C32H36N2O5
PARENT=529.2692
SPLASH=splash10-004i-0100090000-1997c48c5cdb0b521d4c
NUM_PEAKS=5
COMPOUND_NAME=Chaetoglobosin A
SPECTRUM_ID=MSBNK-AAFC-AC000081
ADDUCT=[M+H]+
MS_LEVEL=MS2
PRECURSOR_MZ=529.2692
IONMODE=positive
NOMINAL_MASS=528
PARENT_MASS=528.26243
130.0651 156.0
185.0709 38.0
493.2486 95.0
511.2591 497.0
529.2697 999.0
END IONS

BEGIN IONS
SYNON=2H-Pyrazino(1',2':1,5)pyrrolo(2,3-b)indole-1,4(3H,5aH)-dione, 10b-(1,1-dimethyl-2-propenyl)-6,10b,11,11a-tetrahydro-3-(1H-imidazol-4-ylmethylene)-
INCHIKEY=SPWSUFUPTSJWNG-JJUKSXGLSA-N
INCHI=InChI=1S/C22H23N5O2/c1-4-21(2,3)22-10-17-18(28)25-16(9-13-11-23-12-24-13)19(29)27(17)20(22)26-15-8-6-5-7-14(15)22/h4-9,11-12,17,20,26H,1,10H2,2-3H3,(H,23,24)(H,25,28)/b16-9+/t17-,20-,22+/m0/s1
SMILES=CC(C)(C=C)[C@@]12C[C@H]3C(=O)N/C(=C/C4=CN=CN4)/C(=O)N3[C@@H]1NC5=CC=CC=C25
INSTRUMENT_TYPE=LC-ESI-ITFT
INSTRUMENT=Q-Exactive Orbitrap Thermo Scientific
COLLISION_ENERGY=30(NCE)
FORMULA=C22H23N5O2
PARENT=390.1919
SPLASH=splash10-006x-0809000000-9d72176145c0a3183152
NUM_PEAKS=7
COMPOUND_NAME=Roquefortine C
SPECTRUM_ID=MSBNK-AAFC-AC000216
ADDUCT=[M+H]+
MS_LEVEL=MS2
PRECURSOR_MZ=390.1919
IONMODE=positive
NOMINAL_MASS=389
PARENT_MASS=389.18517
191.0563 49.0
192.0642 44.0
193.072 999.0
198.1277 135.0
322.1298 854.0
334.1298 56.0
390.1924 426.0
END IONS

BEGIN IONS
INCHIKEY=GTONGKBINDTWOM-QXMOYCCXSA-N
INCHI=InChI=1S/C29H36O10/c1-16-7-9-26-14-34-23(32)22-28(39-22)10-11-35-27(17(2)30,24(28)33)8-5-4-6-21(31)38-18-13-20(37-19(26)12-16)29(15-36-29)25(18,26)3/h4-6,8,12,17-20,22,24,30,33H,7,9-11,13-15H2,1-3H3/b6-4-,8-5+
SMILES=CC1=CC2C3(CC1)COC(=O)C4C5(O4)CCOC(C5O)(/C=C/C=C\C(=O)OC6C3(C7(CO7)C(C6)O2)C)C(C)O
INSTRUMENT_TYPE=LC-ESI-ITFT
INSTRUMENT=Q-Exactive Orbitrap Thermo Scientific
COLLISION_ENERGY=20(NCE)
FORMULA=C29H36O10
PARENT=545.2376
SPLASH=splash10-0002-0490060000-488e5f058110a24c7fb0
NUM_PEAKS=22
COMPOUND_NAME=Satratoxin G
SPECTRUM_ID=MSBNK-AAFC-AC000593
ADDUCT=[M+H]+
MS_LEVEL=MS2
PRECURSOR_MZ=545.2376
IONMODE=positive
NOMINAL_MASS=544
PARENT_MASS=544.23084
81.0711 35.0
93.0699 41.0
105.0699 164.0
109.0648 50.0
121.0648 54.0
123.0804 117.0
145.1012 40.0
157.1029 34.0
161.0961 31.0
171.1168 38.0
185.1325 113.0
191.0703 32.0
195.1168 41.0
201.1274 137.0
213.1274 172.0
231.138 684.0
235.0601 48.0
249.1485 383.0
375.1802 51.0
483.2013 33.0
527.2276 39.0
545.2381 999.0
END IONS

BEGIN IONS
SYNON=(3R,4S)-6-hydroxy-3,4,5-trimethyl-8-oxo-3,4-dihydroisochromene-7-carboxylic acid
INCHIKEY=CBGDIJWINPWWJW-IYSWYEEDSA-N
INCHI=InChI=1S/C13H14O5/c1-5-7(3)18-4-8-9(5)6(2)11(14)10(12(8)15)13(16)17/h4-5,7,14H,1-3H3,(H,16,17)/t5-,7-/m1/s1
SMILES=C[C@@H]1[C@H](OC=C2C1=C(C(=C(C2=O)C(=O)O)O)C)C
INSTRUMENT_TYPE=LC-ESI-ITFT
INSTRUMENT=Q-Exactive Orbitrap Thermo Scientific
COLLISION_ENERGY=20(NCE)
FORMULA=C13H14O5
PARENT=249.0774
SPLASH=splash10-0002-0090000000-6c0bbd5185b466db96ac
NUM_PEAKS=3
COMPOUND_NAME=Citrinin
SPECTRUM_ID=MSBNK-AAFC-AC000426
ADDUCT=[M-H]-
MS_LEVEL=MS2
PRECURSOR_MZ=249.0774
IONMODE=negative
NOMINAL_MASS=250
PARENT_MASS=250.08411
205.085 235.0
231.0663 34.0
249.0751 999.0
END IONS

BEGIN IONS
SYNON=(1S,4S,7R,10S,13S)-7-(2-methylpropyl)-4,10-di(propan-2-yl)-15,16-dithia-3,6,9,12,18-pentazabicyclo[11.4.2]nonadecane-2,5,8,11,19-pentone
INCHIKEY=KRQRRZFXHYYNSO-MTSZKFMLSA-N
INCHI=InChI=1S/C22H37N5O5S2/c1-10(2)7-13-18(28)26-17(12(5)6)22(32)25-14-8-33-34-9-15(24-19(14)29)20(30)27-16(11(3)4)21(31)23-13/h10-17H,7-9H2,1-6H3,(H,23,31)(H,24,29)(H,25,32)(H,26,28)(H,27,30)/t13-,14-,15-,16+,17+/m1/s1
SMILES=CC(C)C[C@@H]1C(=O)N[C@H](C(=O)N[C@@H]2CSSC[C@H](C(=O)N[C@H](C(=O)N1)C(C)C)NC2=O)C(C)C
INSTRUMENT_TYPE=LC-ESI-ITFT
INSTRUMENT=Q-Exactive Orbitrap Thermo Scientific
COLLISION_ENERGY=30(NCE)
FORMULA=C22H37N5O5S2
PARENT=516.2303
SPLASH=splash10-0079-9241000000-484077ca520a420b18e9
NUM_PEAKS=20
COMPOUND_NAME=Malformin A2
SPECTRUM_ID=MSBNK-AAFC-AC000874
ADDUCT=[M+H]+
MS_LEVEL=MS2
PRECURSOR_MZ=516.2303
IONMODE=positive
NOMINAL_MASS=515
PARENT_MASS=515.2236
51.4932 34.0
55.055 35.0
59.05 41.0
72.0808 999.0
86.0964 959.0
91.0542 375.0
109.9761 37.0
140.1434 39.0
165.0978 34.0
185.1648 581.0
213.1598 242.0
231.0632 293.0
232.9284 180.0
250.938 47.0
259.0576 424.0
287.7769 39.0
304.0777 338.0
344.1461 46.0
372.1403 70.0
514.3874 51.0
END IONS

BEGIN IONS
INCHIKEY=MXLWQNCWIIZUQT-GHMZBOCLSA-N
INCHI=InChI=1S/C29H26O10/c1-10(30)5-12-18-19-13(6-11(2)31)29(37-4)27(35)21-15(33)8-17-23(25(19)21)22-16(38-9-39-17)7-14(32)20(24(18)22)26(34)28(12)36-3/h7-8,10-11,30-31,34-35H,5-6,9H2,1-4H3/t10-,11-/m1/s1
SMILES=C[C@H](CC1=C(C(=C2C(=O)C=C3C4=C5C(=CC(=O)C6=C(C(=C(C(=C56)C1=C42)C[C@@H](C)O)OC)O)OCO3)O)OC)O
INSTRUMENT_TYPE=LC-ESI-ITFT
INSTRUMENT=Q-Exactive Orbitrap Thermo Scientific
COLLISION_ENERGY=10(NCE)
FORMULA=C29H26O10
PARENT=535.1593
SPLASH=splash10-000i-0000090000-1bcbbeb0faa42359069c
NUM_PEAKS=1
COMPOUND_NAME=Cercosporin
SPECTRUM_ID=MSBNK-AAFC-AC000540
ADDUCT=[M+H]+
MS_LEVEL=MS2
PRECURSOR_MZ=535.1593
IONMODE=positive
NOMINAL_MASS=534
PARENT_MASS=534.15258
535.1599 999.0
END IONS

BEGIN IONS
INCHIKEY=UXDPXZQHTDAXOZ-STOIETHLSA-N
INCHI=InChI=1S/C34H59NO14/c1-5-6-12-21(3)32(49-31(43)18-24(34(46)47)16-29(40)41)27(48-30(42)17-23(33(44)45)15-28(38)39)14-20(2)11-9-7-8-10-13-25(36)19-26(37)22(4)35/h20-27,32,36-37H,5-19,35H2,1-4H3,(H,38,39)(H,40,41)(H,44,45)(H,46,47)/t20-,21+,22-,23+,24+,25+,26-,27-,32+/m0/s1
SMILES=CCCC[C@@H](C)[C@H]([C@H](C[C@@H](C)CCCCCC[C@H](C[C@@H]([C@H](C)N)O)O)OC(=O)C[C@@H](CC(=O)O)C(=O)O)OC(=O)C[C@@H](CC(=O)O)C(=O)O
INSTRUMENT_TYPE=LC-ESI-ITFT
INSTRUMENT=Q-Exactive Orbitrap Thermo Scientific
COLLISION_ENERGY=50(NCE)
FORMULA=C34H59NO14
PARENT=706.4003
SPLASH=splash10-06ea-9300000000-405d978e1b3ec49eb2f8
NUM_PEAKS=47
COMPOUND_NAME=Fumonisin B2
SPECTRUM_ID=MSBNK-AAFC-AC000484
ADDUCT=[M+H]+
MS_LEVEL=MS2
PRECURSOR_MZ=706.4003
IONMODE=positive
NOMINAL_MASS=705
PARENT_MASS=705.39354
56.0502 71.0
57.0341 59.0
57.0705 158.0
58.0658 93.0
67.0542 471.0
69.0699 999.0
70.0651 697.0
72.0808 34.0
74.06 635.0
79.0542 240.0
81.0699 913.0
82.0651 111.0
83.0855 244.0
84.0808 93.0
85.0284 153.0
85.0648 46.0
85.1012 161.0
91.0542 84.0
93.0699 365.0
94.0651 64.0
95.0855 844.0
96.0808 131.0
97.1012 115.0
98.0964 41.0
99.0077 42.0
105.0699 113.0
107.0855 283.0
109.1012 426.0
110.0964 64.0
113.0233 396.0
119.0855 72.0
121.1012 154.0
123.1168 115.0
133.1012 60.0
135.1168 105.0
137.1325 31.0
138.1277 33.0
141.0182 102.0
147.1168 56.0
149.1325 47.0
159.0288 413.0
194.1903 51.0
208.206 67.0
220.206 57.0
238.2166 53.0
318.3129 270.0
336.3234 286.0
END IONS

BEGIN IONS
INCHIKEY=OWUREPXBPJFMOK-CIRFPNLUSA-N
INCHI=InChI=1S/C35H61N3O9/c1-16-22(11)25-34(43)46-27(19(5)6)30(39)36(13)24(18(3)4)33(42)45-28(20(7)8)31(40)37(14)26(23(12)17-2)35(44)47-29(21(9)10)32(41)38(25)15/h18-29H,16-17H2,1-15H3/t22-,23-,24-,25-,26-,27+,28+,29+/m0/s1
SMILES=CC[C@H](C)[C@H]1C(=O)O[C@@H](C(=O)N([C@H](C(=O)O[C@@H](C(=O)N([C@H](C(=O)O[C@@H](C(=O)N1C)C(C)C)[C@@H](C)CC)C)C(C)C)C(C)C)C)C(C)C
INSTRUMENT_TYPE=LC-ESI-ITFT
INSTRUMENT=Q-Exactive Orbitrap Thermo Scientific
COLLISION_ENERGY=35(NCE)
FORMULA=C35H61N3O9
PARENT=668.4475
SPLASH=splash10-0w29-1791000000-9e6b19541397e803f642
NUM_PEAKS=10
COMPOUND_NAME=Enniatin A1
SPECTRUM_ID=MSBNK-AAFC-AC000438
ADDUCT=[M+H]+
MS_LEVEL=MS2
PRECURSOR_MZ=668.4475
IONMODE=positive
NOMINAL_MASS=667
PARENT_MASS=667.44079
86.0964 423.0
100.1121 999.0
186.1489 199.0
196.1332 390.0
200.1645 403.0
210.1489 879.0
214.1438 288.0
228.1594 431.0
314.1935 134.0
328.2092 168.0
END IONS

BEGIN IONS
SYNON=15-monoacetyldeoxynivalenol
INCHIKEY=IDGRYIRJIFKTAN-HTJQZXIKSA-N
INCHI=InChI=1S/C17H22O7/c1-8-4-11-16(6-22-9(2)18,13(21)12(8)20)15(3)5-10(19)14(24-11)17(15)7-23-17/h4,10-11,13-14,19,21H,5-7H2,1-3H3/t10-,11-,13-,14-,15-,16-,17+/m1/s1
SMILES=CC1=C[C@@H]2[C@]([C@@H](C1=O)O)([C@]3(C[C@H]([C@H]([C@@]34CO4)O2)O)C)COC(=O)C
INSTRUMENT_TYPE=LC-APCI-ITFT
INSTRUMENT=Q-Exactive Orbitrap Thermo Scientific
COLLISION_ENERGY=40(NCE)
FORMULA=C17H22O7
PARENT=321.1327
SPLASH=splash10-000l-4920000000-e2a31d49379dee09f2a8
NUM_PEAKS=51
COMPOUND_NAME=15-Acetyldeoxynivalenol
SPECTRUM_ID=MSBNK-AAFC-AC000380
ADDUCT=[M-H2O+H]+
MS_LEVEL=MS2
PRECURSOR_MZ=321.1327
IONMODE=positive
NOMINAL_MASS=338
PARENT_MASS=338.13654
69.0343 47.0
79.0542 252.0
81.0707 84.0
91.0542 155.0
93.0699 999.0
95.0491 187.0
95.0855 38.0
97.0648 184.0
105.0699 45.0
107.0855 38.0
109.0284 71.0
109.0648 287.0
121.0648 71.0
123.0441 80.0
125.0597 86.0
128.4506 33.0
129.0699 62.0
135.0804 45.0
137.0597 509.0
141.0699 46.0
142.0777 95.0
145.0648 42.0
145.1012 40.0
147.9591 37.0
157.1012 364.0
159.0804 54.0
159.1168 77.0
161.0597 161.0
161.0961 39.0
167.0855 53.0
169.1012 43.0
170.0726 44.0
172.0883 46.0
173.0961 58.0
175.0754 79.0
175.1118 46.0
182.0726 45.0
185.0961 695.0
187.0754 49.0
187.1118 186.0
189.091 46.0
197.0961 46.0
200.0832 51.0
213.0933 44.0
215.1067 640.0
217.1223 180.0
225.4819 37.0
243.1016 50.0
261.1121 165.0
279.1227 39.0
309.0569 46.0
END IONS

BEGIN IONS
SYNON=(3S,6S)-3-[(4-hydroxyphenyl)methyl]-3,6-bis(methylsulfanyl)piperazine-2,5-dione
INCHIKEY=ALVTZOKFXMRGEB-AAEUAGOBSA-N
INCHI=InChI=1S/C13H16N2O3S2/c1-19-11-10(17)15-13(20-2,12(18)14-11)7-8-3-5-9(16)6-4-8/h3-6,11,16H,7H2,1-2H3,(H,14,18)(H,15,17)/t11-,13-/m0/s1
SMILES=CS[C@H]1C(=O)N[C@@](C(=O)N1)(CC2=CC=C(C=C2)O)SC
INSTRUMENT_TYPE=LC-ESI-ITFT
INSTRUMENT=Q-Exactive Orbitrap Thermo Scientific
COLLISION_ENERGY=55(NCE)
FORMULA=C13H16N2O3S2
PARENT=313.067
SPLASH=splash10-0f6t-0960000000-bc0f6ac7991393dff037
NUM_PEAKS=20
COMPOUND_NAME=Fusaperazine A
SPECTRUM_ID=MSBNK-AAFC-AC000761
ADDUCT=[M+H]+
MS_LEVEL=MS2
PRECURSOR_MZ=313.067
IONMODE=positive
NOMINAL_MASS=312
PARENT_MASS=312.06023
59.05 81.0
156.0682 92.0
172.0757 351.0
173.0835 34.0
184.0631 447.0
198.0913 75.0
199.0866 999.0
200.0706 34.0
209.0709 41.0
212.058 62.0
212.1066 39.0
213.1144 31.0
223.0859 34.0
224.0941 105.0
227.0815 101.0
237.0641 194.0
239.1175 83.0
251.0797 34.0
252.0875 522.0
267.1121 49.0
END IONS

BEGIN IONS
SYNON=[4b(2Z,4E,6S,7S)]-4-(6,7-dihydroxy-2,4-octadienoate) 12,13-Epoxy-trichothec-9-ene-4,15-diol
INCHIKEY=QFKRKMXPKBHGGO-OYWHZMLYSA-N
INCHI=InChI=1S/C23H32O7/c1-14-8-9-22(12-24)18(10-14)29-19-11-17(21(22,3)23(19)13-28-23)30-20(27)7-5-4-6-16(26)15(2)25/h4-7,10,15-19,24-26H,8-9,11-13H2,1-3H3/b6-4+,7-5-/t15-,16-,17+,18+,19+,21+,22+,23-/m0/s1
SMILES=CC1=C[C@@H]2[C@](CC1)([C@]3([C@@H](C[C@H]([C@@]34CO4)O2)OC(=O)/C=C\C=C\[C@@H]([C@H](C)O)O)C)CO
INSTRUMENT_TYPE=LC-ESI-ITFT
INSTRUMENT=Q-Exactive Orbitrap Thermo Scientific
COLLISION_ENERGY=50(NCE)
FORMULA=C23H32O7
PARENT=443.2035
SPLASH=splash10-0002-1900000000-891f7863a11f6aa0ad99
NUM_PEAKS=12
COMPOUND_NAME=Trichoverrol A
SPECTRUM_ID=MSBNK-AAFC-AC000257
ADDUCT=[M+Na]+
MS_LEVEL=MS2
PRECURSOR_MZ=443.2035
IONMODE=positive
NOMINAL_MASS=420
PARENT_MASS=420.2148
81.0699 41.0
91.0542 33.0
93.0699 47.0
95.0491 71.0
105.0699 81.0
107.0855 39.0
119.0855 56.0
131.0855 45.0
133.1012 124.0
143.0855 37.0
159.1168 51.0
195.0628 999.0
END IONS

BEGIN IONS
INCHIKEY=SJCPVUVBUQDGKN-VXWIUBPCSA-N
INCHI=InChI=1S/C29H34O10/c1-16-7-9-26-14-34-23(32)22-28(39-22)10-11-35-27(17(2)30,24(28)33)8-5-4-6-21(31)38-18-13-20(37-19(26)12-16)29(15-36-29)25(18,26)3/h4-6,8,12,18-20,22,24,33H,7,9-11,13-15H2,1-3H3/b6-4-,8-5-
SMILES=CC1=CC2C3(CC1)COC(=O)C4C5(O4)CCOC(C5O)(/C=C\C=C/C(=O)OC6C3(C7(CO7)C(C6)O2)C)C(=O)C
INSTRUMENT_TYPE=LC-ESI-ITFT
INSTRUMENT=Q-Exactive Orbitrap Thermo Scientific
COLLISION_ENERGY=20(NCE)
FORMULA=C29H34O10
PARENT=565.2039
SPLASH=splash10-014i-0000090000-5a9d2dddf1b27d396fe3
NUM_PEAKS=1
COMPOUND_NAME=Satratoxin F
SPECTRUM_ID=MSBNK-AAFC-AC000588
ADDUCT=[M+Na]+
MS_LEVEL=MS2
PRECURSOR_MZ=565.2039
IONMODE=positive
NOMINAL_MASS=542
PARENT_MASS=542.21518
565.2044 999.0
END IONS

BEGIN IONS
INCHIKEY=SOHAVULMGIITDH-ZXPSTKSJSA-N
INCHI=InChI=1S/C24H25N5O4/c1-6-22(2,3)23-12-19(32-4)21(31)28-18(11-15-13-25-14-26-15)20(30)27-24(23,28)29(33-5)17-10-8-7-9-16(17)23/h6-14H,1H2,2-5H3,(H,25,26)(H,27,30)/b18-11+/t23-,24-/m0/s1
SMILES=C=CC(C)(C)[C@]12C=C(C(=O)N3/C(=C/c4cnc[nH]4)/C(=N[C@@]23N(c2ccccc12)OC)O)OC
INSTRUMENT_TYPE=LC-ESI-ITFT
INSTRUMENT=Q-Exactive Orbitrap Thermo Scientific
COLLISION_ENERGY=30(NCE)
FORMULA=C24H25N5O4
PARENT=448.1974
SPLASH=splash10-0002-0009100000-335ea48c982eff10f9e9
NUM_PEAKS=18
COMPOUND_NAME=Oxaline
SPECTRUM_ID=MSBNK-AAFC-AC000744
ADDUCT=[M+H]+
MS_LEVEL=MS2
PRECURSOR_MZ=448.1974
IONMODE=positive
NOMINAL_MASS=447
PARENT_MASS=447.19064
204.0516 32.0
256.1319 65.0
277.1084 33.0
289.072 51.0
305.1033 77.0
316.0829 70.0
317.0907 52.0
330.0985 32.0
332.0904 273.0
333.0982 47.0
348.1091 999.0
349.1169 242.0
358.1662 60.0
374.1611 150.0
385.1533 44.0
386.1611 189.0
402.1561 73.0
417.1795 204.0
END IONS

BEGIN IONS
SYNON=12'-hydroxy-2'-(1-methyl)-5'alpha-(phenylmethyl)ergotaman-3',6',18-trione
INCHIKEY=HEFIYUQVAZFDEE-MKTPKCENSA-N
INCHI=InChI=1S/C35H39N5O5/c1-20(2)34(37-31(41)23-16-25-24-11-7-12-26-30(24)22(18-36-26)17-27(25)38(3)19-23)33(43)40-28(15-21-9-5-4-6-10-21)32(42)39-14-8-13-29(39)35(40,44)45-34/h4-7,9-12,16,18,20,23,27-29,36,44H,8,13-15,17,19H2,1-3H3,(H,37,41)/t23-,27-,28+,29+,34-,35+/m1/s1
SMILES=CC(C)[C@@]1(C(=O)N2[C@H](C(=O)N3CCC[C@H]3[C@@]2(O1)O)CC4=CC=CC=C4)NC(=O)[C@H]5CN([C@@H]6CC7=CNC8=CC=CC(=C78)C6=C5)C
INSTRUMENT_TYPE=LC-ESI-ITFT
INSTRUMENT=Q-Exactive Orbitrap Thermo Scientific
COLLISION_ENERGY=40(NCE)
FORMULA=C35H39N5O5
PARENT=610.3018
SPLASH=splash10-0adi-0190000000-8fae521ae2aa5f33f61c
NUM_PEAKS=15
COMPOUND_NAME=Ergocristine
SPECTRUM_ID=MSBNK-AAFC-AC000355
ADDUCT=[M+H]+
MS_LEVEL=MS2
PRECURSOR_MZ=610.3018
IONMODE=positive
NOMINAL_MASS=609
PARENT_MASS=609.29511
70.0659 66.0
180.0808 158.0
192.0808 64.0
197.1073 134.0
208.0757 999.0
208.0968 58.0
221.1073 62.0
223.123 812.0
225.1022 502.0
237.1022 36.0
243.1128 37.0
245.1285 81.0
268.1444 228.0
277.1335 85.0
305.1285 45.0
END IONS

BEGIN IONS
INCHIKEY=CPCRJSQNWHCGOP-ZBUYIUKQSA-N
INCHI=InChI=1S/C34H59NO14/c1-5-6-11-21(3)32(49-31(43)19-24(34(46)47)17-29(40)41)27(48-30(42)18-23(33(44)45)16-28(38)39)15-20(2)14-25(36)12-9-7-8-10-13-26(37)22(4)35/h20-27,32,36-37H,5-19,35H2,1-4H3,(H,38,39)(H,40,41)(H,44,45)(H,46,47)/t20-,21+,22+,23?,24?,25+,26-,27-,32+/m0/s1
SMILES=CCCC[C@@H](C)[C@H]([C@H](C[C@@H](C)C[C@@H](CCCCCC[C@@H]([C@@H](C)N)O)O)OC(=O)CC(CC(=O)O)C(=O)O)OC(=O)CC(CC(=O)O)C(=O)O
INSTRUMENT_TYPE=LC-ESI-ITFT
INSTRUMENT=Q-Exactive Orbitrap Thermo Scientific
COLLISION_ENERGY=35(NCE)
FORMULA=C34H59NO14
PARENT=706.4003
SPLASH=splash10-05n0-6915000000-a11917010eb1886f4a72
NUM_PEAKS=51
COMPOUND_NAME=Fumonisin B3
SPECTRUM_ID=MSBNK-AAFC-AC000492
ADDUCT=[M+H]+
MS_LEVEL=MS2
PRECURSOR_MZ=706.4003
IONMODE=positive
NOMINAL_MASS=705
PARENT_MASS=705.39354
57.0705 93.0
67.0542 103.0
69.0699 200.0
70.0651 103.0
79.0542 45.0
81.0699 421.0
83.0855 110.0
85.0648 33.0
85.1012 152.0
93.0699 135.0
95.0855 460.0
97.1012 107.0
105.0699 68.0
107.0855 179.0
109.1012 334.0
111.1168 53.0
113.0233 31.0
119.0855 59.0
121.1012 161.0
123.1168 202.0
127.1118 53.0
133.1012 81.0
135.1168 148.0
137.1325 65.0
141.0182 58.0
147.1168 93.0
149.1325 91.0
151.1481 78.0
159.0288 237.0
161.1325 54.0
163.1481 45.0
165.1638 37.0
170.154 164.0
175.1481 43.0
177.1638 49.0
188.1645 66.0
189.1638 32.0
191.1795 31.0
194.1903 118.0
203.1795 59.0
208.206 32.0
210.2217 54.0
212.2009 36.0
220.206 72.0
224.2009 39.0
238.2139 157.0
256.2244 44.0
301.289 44.0
318.3129 431.0
336.3234 999.0
354.334 96.0
END IONS

BEGIN IONS
INCHIKEY=NKCFJIIVGLENIK-NOCMYWHHSA-N
INCHI=InChI=1S/C17H24O6/c1-9-4-12(20)16(7-18)13(5-9)23-14-11(22-10(2)19)6-15(16,3)17(14)8-21-17/h5,11-14,18,20H,4,6-8H2,1-3H3/t11-,12-,13-,14-,15-,16+,17+/m1/s1
SMILES=CC1=C[C@@H]2[C@]([C@@]3(C)C[C@@H](OC(C)=O)[C@@H](O2)[C@@]34CO4)(CO)[C@H](O)C1
INSTRUMENT_TYPE=LC-APCI-ITFT
INSTRUMENT=Q-Exactive Orbitrap Thermo Scientific
COLLISION_ENERGY=30(NCE)
FORMULA=C17H24O6
PARENT=325.164
SPLASH=splash10-0592-1930000000-6374cfb06c49d5b225be
NUM_PEAKS=86
COMPOUND_NAME=NX2 toxin
SPECTRUM_ID=MSBNK-AAFC-AC000394
ADDUCT=[M+H]+
MS_LEVEL=MS2
PRECURSOR_MZ=325.164
IONMODE=positive
NOMINAL_MASS=324
PARENT_MASS=324.15728
69.0345 49.0
71.05 31.0
79.0542 96.0
81.0707 238.0
83.0491 61.0
85.0648 56.0
91.0542 61.0
93.0699 430.0
95.0491 109.0
95.0855 50.0
97.0648 125.0
99.0441 104.0
105.0699 631.0
107.0491 82.0
107.0855 106.0
109.0648 448.0
111.0441 52.0
113.0597 38.0
117.0699 45.0
119.0491 89.0
119.0855 155.0
121.0648 744.0
121.1012 31.0
123.0804 229.0
125.0597 334.0
127.0754 53.0
129.0699 60.0
131.0855 190.0
133.0648 401.0
133.1012 93.0
135.0441 35.0
135.0804 61.0
137.0597 90.0
139.0754 709.0
141.0699 38.0
142.0777 39.0
143.0855 395.0
145.0648 57.0
145.1012 262.0
147.0804 199.0
149.0597 48.0
149.0961 48.0
151.0754 76.0
155.0855 144.0
156.0934 40.0
157.1012 509.0
159.0804 195.0
159.1168 241.0
161.0961 182.0
163.0754 41.0
163.1118 87.0
168.0934 117.0
169.1012 291.0
171.0804 148.0
171.1168 618.0
173.0961 239.0
173.1325 165.0
175.1118 70.0
181.1012 212.0
183.1168 708.0
185.0961 85.0
187.1118 331.0
189.091 42.0
189.1274 133.0
191.1067 358.0
193.1012 123.0
196.0883 63.0
199.1118 999.0
201.1274 381.0
203.1067 50.0
205.1223 66.0
209.1172 112.0
211.1118 418.0
215.1067 100.0
217.1223 624.0
219.138 66.0
229.1223 550.0
235.1329 86.0
247.1329 531.0
259.1329 49.0
265.1434 419.0
277.1434 41.0
283.154 405.0
289.1434 111.0
307.154 472.0
325.1646 149.0
END IONS

BEGIN IONS
SYNON=furo[2',3':5,6]napho[1,8-BC]pyran-5,6-dione,8,9-dihydro-3,7-dihydroxy-1,8,8,9-tetramethyl-,(9S)-
INCHIKEY=MYDJDVOVZVSVIE-ZETCQYMHSA-N
INCHI=InChI=1S/C18H16O6/c1-6-5-8(19)15-10-9(6)16-12(18(3,4)7(2)23-16)13(20)11(10)14(21)17(22)24-15/h5,7,19-20H,1-4H3/t7-/m0/s1
SMILES=C[C@H]1C(C2=C(O1)C3=C4C(=C2O)C(=O)C(=O)OC4=C(C=C3C)O)(C)C
INSTRUMENT_TYPE=LC-ESI-ITFT
INSTRUMENT=Q-Exactive Orbitrap Thermo Scientific
COLLISION_ENERGY=10(NCE)
FORMULA=C18H16O6
PARENT=329.1014
SPLASH=splash10-004i-0009000000-5a0da9077fa108633f1c
NUM_PEAKS=1
COMPOUND_NAME=Scleroderolide
SPECTRUM_ID=MSBNK-AAFC-AC000671
ADDUCT=[M+H]+
MS_LEVEL=MS2
PRECURSOR_MZ=329.1014
IONMODE=positive
NOMINAL_MASS=328
PARENT_MASS=328.09468
329.102 999.0
END IONS

BEGIN IONS
INCHIKEY=GZCJIEXTWGJVIN-MKHOGIGVSA-N
INCHI=InChI=1S/C34H56O15/c1-5-6-12-21(3)32(49-31(43)18-24(34(46)47)16-29(40)41)27(48-30(42)17-23(33(44)45)15-28(38)39)14-20(2)11-9-7-8-10-13-25(36)19-26(37)22(4)35/h20-21,23-27,32,36-37H,5-19H2,1-4H3,(H,38,39)(H,40,41)(H,44,45)(H,46,47)/t20-,21+,23+,24+,25+,26-,27-,32+/m0/s1
SMILES=CCCC[C@H]([C@@H](OC(C[C@H](C(O)=O)CC(O)=O)=O)[C@@H](OC(C[C@H](C(O)=O)CC(O)=O)=O)C[C@H](CCCCCC[C@@H](O)C[C@H](O)C(C)=O)C)C
INSTRUMENT_TYPE=LC-ESI-ITFT
INSTRUMENT=Q-Exactive Orbitrap Thermo Scientific
COLLISION_ENERGY=40(NCE)
FORMULA=C34H56O15
PARENT=703.3552
SPLASH=splash10-0a4i-2900000000-7d8a78fe1a32d7af6198
NUM_PEAKS=4
COMPOUND_NAME=Fumonisin Py2
SPECTRUM_ID=MSBNK-AAFC-AC000939
ADDUCT=[M-H]-
MS_LEVEL=MS2
PRECURSOR_MZ=703.3552
IONMODE=negative
NOMINAL_MASS=704
PARENT_MASS=704.36191
69.0327 318.0
71.012 42.0
113.0224 259.0
157.0122 999.0
END IONS

BEGIN IONS
SYNON=[(1S,7S,8S,8aR)-8-[2-[(2R,4R)-4-hydroxy-6-oxooxan-2-yl]ethyl]-7-methyl-1,2,3,7,8,8a-hexahydronaphthalen-1-yl] (2S)-2-methylbutanoate
INCHIKEY=AJLFOPYRIVGYMJ-INTXDZFKSA-N
INCHI=InChI=1S/C23H34O5/c1-4-14(2)23(26)28-20-7-5-6-16-9-8-15(3)19(22(16)20)11-10-18-12-17(24)13-21(25)27-18/h6,8-9,14-15,17-20,22,24H,4-5,7,10-13H2,1-3H3/t14-,15-,17+,18+,19-,20-,22-/m0/s1
SMILES=CC[C@H](C)C(=O)O[C@H]1CCC=C2[C@H]1[C@H]([C@H](C=C2)C)CC[C@@H]3C[C@H](CC(=O)O3)O
INSTRUMENT_TYPE=LC-ESI-ITFT
INSTRUMENT=Q-Exactive Orbitrap Thermo Scientific
COLLISION_ENERGY=20(NCE)
FORMULA=C23H34O5
PARENT=391.2474
SPLASH=splash10-0550-0790000000-884a36df2aacd4501030
NUM_PEAKS=20
COMPOUND_NAME=Mevastatin
SPECTRUM_ID=MSBNK-AAFC-AC000858
ADDUCT=[M+H]+
MS_LEVEL=MS2
PRECURSOR_MZ=391.2474
IONMODE=positive
NOMINAL_MASS=390
PARENT_MASS=390.24063
79.0542 62.0
83.0491 38.0
97.0648 65.0
107.0491 51.0
125.0597 74.0
143.0703 102.0
145.1012 64.0
157.1012 48.0
159.1168 615.0
185.1325 999.0
187.1481 95.0
197.1325 31.0
209.1325 107.0
211.1481 539.0
225.1638 218.0
229.1587 810.0
235.1481 211.0
253.1587 268.0
271.1693 306.0
289.1798 41.0
END IONS

BEGIN IONS
SYNON=3-[(3S,6R,9S,12S,15R,18S,21S,25R)-9-(carboxymethyl)-3,6,15,18-tetrakis(2-methylpropyl)-25-(10-methylundecyl)-2,5,8,11,14,17,20,23-octaoxo-12-propan-2-yl-1-oxa-4,7,10,13,16,19,22-heptazacyclopentacos-21-yl]propanoic acid
INCHIKEY=NJGWOFRZMQRKHT-WGVNQGGSSA-N
INCHI=InChI=1S/C53H93N7O13/c1-30(2)20-18-16-14-13-15-17-19-21-36-28-43(61)54-37(22-23-44(62)63)47(66)55-38(24-31(3)4)48(67)57-40(26-33(7)8)51(70)60-46(35(11)12)52(71)58-41(29-45(64)65)50(69)56-39(25-32(5)6)49(68)59-42(27-34(9)10)53(72)73-36/h30-42,46H,13-29H2,1-12H3,(H,54,61)(H,55,66)(H,56,69)(H,57,67)(H,58,71)(H,59,68)(H,60,70)(H,62,63)(H,64,65)/t36-,37+,38+,39-,40-,41+,42+,46+/m1/s1
SMILES=CC(C)CCCCCCCCC[C@@H]1CC(=O)N[C@H](C(=O)N[C@H](C(=O)N[C@@H](C(=O)N[C@H](C(=O)N[C@H](C(=O)N[C@@H](C(=O)N[C@H](C(=O)O1)CC(C)C)CC(C)C)CC(=O)O)C(C)C)CC(C)C)CC(C)C)CCC(=O)O
INSTRUMENT_TYPE=LC-ESI-ITFT
INSTRUMENT=Q-Exactive Orbitrap Thermo Scientific
COLLISION_ENERGY=55(NCE)
FORMULA=C53H93N7O13
PARENT=1036.6899
SPLASH=splash10-000i-9200000000-ec71aa932a61e69a06d5
NUM_PEAKS=10
COMPOUND_NAME=Surfactin C
SPECTRUM_ID=MSBNK-AAFC-AC000728
ADDUCT=[M+H]+
MS_LEVEL=MS2
PRECURSOR_MZ=1036.6899
IONMODE=positive
NOMINAL_MASS=1036
PARENT_MASS=1035.68314
72.0817 130.0
84.0453 289.0
86.0973 999.0
102.055 201.0
130.0499 32.0
154.159 94.0
170.1176 50.0
183.1128 34.0
199.1805 46.0
201.1234 81.0
END IONS

BEGIN IONS
SYNON=12,13-Epoxy-3-alpha,7-alpha,15-trihydroxy-9-trichothecen-8-one
INCHIKEY=LINOMUASTDIRTM-QGRHZQQGSA-N
INCHI=InChI=1S/C15H20O6/c1-7-3-9-14(5-16,11(19)10(7)18)13(2)4-8(17)12(21-9)15(13)6-20-15/h3,8-9,11-12,16-17,19H,4-6H2,1-2H3/t8-,9-,11-,12-,13-,14-,15+/m1/s1
SMILES=CC1=C[C@@H]2[C@]([C@@H](C1=O)O)([C@]3(C[C@H]([C@H]([C@@]34CO4)O2)O)C)CO
INSTRUMENT_TYPE=LC-ESI-ITFT
INSTRUMENT=Q-Exactive Orbitrap Thermo Scientific
COLLISION_ENERGY=35(NCE)
FORMULA=C15H20O6
PARENT=297.1327
SPLASH=splash10-0fc0-2940000000-96a4eac3a91974e29374
NUM_PEAKS=107
COMPOUND_NAME=Deoxynivalenol
SPECTRUM_ID=MSBNK-AAFC-AC000113
ADDUCT=[M+H]+
MS_LEVEL=MS2
PRECURSOR_MZ=297.1327
IONMODE=positive
NOMINAL_MASS=296
PARENT_MASS=296.12598
55.0185 112.0
55.0549 65.0
57.0341 35.0
67.0542 118.0
69.0335 434.0
69.0706 44.0
71.0491 49.0
79.0542 343.0
81.0699 214.0
83.0491 182.0
84.96 184.0
85.0284 168.0
89.0597 49.0
91.0542 172.0
93.0699 198.0
95.0491 359.0
97.0648 423.0
99.0441 38.0
102.9703 49.0
103.039 64.0
105.0699 324.0
107.0491 228.0
107.0855 129.0
109.0284 117.0
109.0648 358.0
117.0699 145.0
119.0491 34.0
119.0855 177.0
121.0648 353.0
123.0441 276.0
123.0804 120.0
125.0597 784.0
127.0754 68.0
128.0621 33.0
129.0699 52.0
131.0855 281.0
133.0648 272.0
133.1012 63.0
135.0441 50.0
135.0804 177.0
137.0597 497.0
141.0699 35.0
142.0777 140.0
143.0855 156.0
145.0648 165.0
145.1012 215.0
146.0726 33.0
147.0804 289.0
147.1168 59.0
149.0597 188.0
149.0961 166.0
151.039 39.0
151.0754 44.0
153.0546 35.0
154.0777 51.0
155.0855 57.0
157.1012 265.0
158.0726 115.0
158.9267 34.0
159.0804 462.0
159.1168 255.0
161.0597 479.0
161.0961 400.0
163.0754 209.0
165.091 168.0
167.0855 34.0
169.1012 141.0
171.0804 66.0
172.0883 115.0
173.0961 398.0
174.0675 117.0
175.0754 836.0
175.1118 468.0
176.938 162.0
177.091 406.0
185.0961 424.0
186.9225 36.0
187.0754 119.0
187.1118 276.0
188.0832 140.0
189.091 539.0
191.1067 67.0
194.9486 57.0
195.0804 46.0
197.0961 137.0
198.0675 142.0
201.091 417.0
203.0703 50.0
203.1067 999.0
203.1237 53.0
204.9328 381.0
205.0859 107.0
213.091 312.0
214.9178 65.0
215.1067 134.0
219.1016 241.0
222.9428 281.0
231.1016 662.0
232.9276 763.0
233.1172 117.0
249.1121 319.0
250.9379 767.0
251.1278 64.0
261.1121 146.0
267.1227 43.0
279.1227 91.0
297.1333 33.0
END IONS

BEGIN IONS
SYNON=2H-Pyrazino(1',2':1,5)pyrrolo(2,3-b)indole-1,4(3H,5aH)-dione, 10b-(1,1-dimethyl-2-propenyl)-6,10b,11,11a-tetrahydro-3-(1H-imidazol-4-ylmethylene)-
INCHIKEY=SPWSUFUPTSJWNG-JJUKSXGLSA-N
INCHI=InChI=1S/C22H23N5O2/c1-4-21(2,3)22-10-17-18(28)25-16(9-13-11-23-12-24-13)19(29)27(17)20(22)26-15-8-6-5-7-14(15)22/h4-9,11-12,17,20,26H,1,10H2,2-3H3,(H,23,24)(H,25,28)/b16-9+/t17-,20-,22+/m0/s1
SMILES=CC(C)(C=C)[C@@]12C[C@H]3C(=O)N/C(=C/C4=CN=CN4)/C(=O)N3[C@@H]1NC5=CC=CC=C25
INSTRUMENT_TYPE=LC-ESI-ITFT
INSTRUMENT=Q-Exactive Orbitrap Thermo Scientific
COLLISION_ENERGY=20(NCE)
FORMULA=C22H23N5O2
PARENT=390.1919
SPLASH=splash10-0006-0009000000-09637db82654a9cc13e9
NUM_PEAKS=3
COMPOUND_NAME=Roquefortine C
SPECTRUM_ID=MSBNK-AAFC-AC000215
ADDUCT=[M+H]+
MS_LEVEL=MS2
PRECURSOR_MZ=390.1919
IONMODE=positive
NOMINAL_MASS=389
PARENT_MASS=389.18517
193.072 133.0
322.1298 406.0
390.1924 999.0
END IONS

BEGIN IONS
SYNON=(3E,7aS,12aR)-6-Hydroxy-3-(1H-imidazol-4-ylmethylene)-12-methoxy-7a-(2-methyl-3-buten-2-yl)-6,7,7a,12-tetrahydro-1H,5H-imidazo[1',2':1,2]pyrido[2,3-b]indole-2,5(3H)-dione
INCHIKEY=HHLNXXASUKFCCX-FUNOPTADSA-N
INCHI=InChI=1S/C23H25N5O4/c1-5-21(2,3)22-11-18(29)20(31)27-17(10-14-12-24-13-25-14)19(30)26-23(22,27)28(32-4)16-9-7-6-8-15(16)22/h5-10,12-13,18,29H,1,11H2,2-4H3,(H,24,25)(H,26,30)/b17-10+/t18-,22-,23-/m0/s1
SMILES=C=CC(C)(C)[C@]12C[C@@H](C(=O)N3/C(=C/c4cnc[nH]4)/C(=N[C@@]23N(c2ccccc12)OC)O)O
INSTRUMENT_TYPE=LC-ESI-ITFT
INSTRUMENT=Q-Exactive Orbitrap Thermo Scientific
COLLISION_ENERGY=30(NCE)
FORMULA=C23H25N5O4
PARENT=436.1974
SPLASH=splash10-000i-0049100000-bef1573d5636415eda71
NUM_PEAKS=30
COMPOUND_NAME=Neoxaline
SPECTRUM_ID=MSBNK-AAFC-AC000788
ADDUCT=[M+H]+
MS_LEVEL=MS2
PRECURSOR_MZ=436.1974
IONMODE=positive
NOMINAL_MASS=435
PARENT_MASS=435.19064
166.0975 37.0
203.0801 31.0
204.0853 34.0
214.1226 41.0
215.1264 55.0
216.1297 35.0
262.0822 35.0
263.0855 47.0
264.0934 40.0
278.1036 31.0
279.1088 45.0
280.1094 49.0
289.072 117.0
290.0726 242.0
291.0791 365.0
292.0829 39.0
308.107 47.0
318.0747 37.0
319.0754 124.0
320.0818 237.0
321.0897 40.0
334.0934 142.0
335.0941 510.0
336.1006 999.0
337.1084 286.0
374.1863 36.0
376.202 46.0
388.1656 39.0
404.1659 47.0
405.1683 337.0
END IONS

BEGIN IONS
SYNON=(3S,8aS)-3-[[2-(3-methylbut-2-enyl)-1H-indol-3-yl]methyl]-2,3,6,7,8,8a-hexahydropyrrolo[1,2-a]pyrazine-1,4-dione
INCHIKEY=GLWYBXPXOSKQAW-OALUTQOASA-N
INCHI=InChI=1S/C21H25N3O2/c1-13(2)9-10-17-15(14-6-3-4-7-16(14)22-17)12-18-21(26)24-11-5-8-19(24)20(25)23-18/h3-4,6-7,9,18-19,22H,5,8,10-12H2,1-2H3,(H,23,25)/t18-,19-/m0/s1
SMILES=CC(=CCC1=C(C2=CC=CC=C2N1)C[C@H]3C(=O)N4CCC[C@H]4C(=O)N3)C
INSTRUMENT_TYPE=LC-ESI-ITFT
INSTRUMENT=Q-Exactive Orbitrap Thermo Scientific
COLLISION_ENERGY=30(NCE)
FORMULA=C21H25N3O2
PARENT=352.2014
SPLASH=splash10-000t-0920000000-00e7bc9f6b6894b7ae21
NUM_PEAKS=10
COMPOUND_NAME=Tryprostatin B
SPECTRUM_ID=MSBNK-AAFC-AC000864
ADDUCT=[M+H]+
MS_LEVEL=MS2
PRECURSOR_MZ=352.2014
IONMODE=positive
NOMINAL_MASS=351
PARENT_MASS=351.19468
69.0707 183.0
107.0491 63.0
130.0651 783.0
132.0808 62.0
144.0808 42.0
170.06 46.0
198.1277 999.0
268.1444 59.0
284.1394 247.0
296.1394 341.0
END IONS

BEGIN IONS
SYNON=3,15-Bis(acetyloxy)-12,13-epoxy-7-hydroxytrichothec-9-en-8-one (3alpha)-
INCHIKEY=RANGFOQREJPKIH-QZQWDYNDSA-N
INCHI=InChI=1S/C19H24O8/c1-9-5-13-18(7-24-10(2)20,15(23)14(9)22)17(4)6-12(26-11(3)21)16(27-13)19(17)8-25-19/h5,12-13,15-16,23H,6-8H2,1-4H3/t12-,13-,15?,16-,17-,18-,19+/m1/s1
SMILES=CC1=C[C@@H]2[C@](C(C1=O)O)([C@]3(C[C@H]([C@H]([C@@]34CO4)O2)OC(=O)C)C)COC(=O)C
INSTRUMENT_TYPE=LC-ESI-ITFT
INSTRUMENT=Q-Exactive Orbitrap Thermo Scientific
COLLISION_ENERGY=20(NCE)
FORMULA=C19H24O8
PARENT=381.1538
SPLASH=splash10-01si-0591000000-a1a41432b0559481cfa5
NUM_PEAKS=42
COMPOUND_NAME=3,15-Diacetyldeoxynivalenol
SPECTRUM_ID=MSBNK-AAFC-AC000116
ADDUCT=[M+H]+
MS_LEVEL=MS2
PRECURSOR_MZ=381.1538
IONMODE=positive
NOMINAL_MASS=380
PARENT_MASS=380.1471
79.0542 58.0
81.0699 88.0
95.0491 48.0
97.0648 63.0
107.0491 54.0
109.0648 162.0
113.0597 73.0
125.0597 289.0
133.0648 128.0
135.0441 65.0
137.0597 510.0
143.0703 39.0
153.0546 95.0
159.0804 32.0
159.1168 35.0
163.0754 44.0
173.0961 156.0
175.0754 65.0
179.0703 58.0
185.0961 88.0
187.1118 131.0
189.091 159.0
197.0961 118.0
201.091 78.0
203.1067 316.0
205.0859 47.0
213.091 436.0
215.1067 381.0
217.0859 34.0
219.1016 54.0
225.091 93.0
231.1016 999.0
233.1172 65.0
243.1016 384.0
249.1121 33.0
261.1121 321.0
265.107 36.0
273.1121 56.0
279.1227 485.0
303.1227 44.0
321.1333 89.0
381.1544 330.0
END IONS

BEGIN IONS
INCHIKEY=TVZHDVCTOCZDNE-WVJYZQHISA-N
INCHI=InChI=1S/C19H26O8/c1-9-5-13-18(6-12(9)22,7-24-10(2)20)17(4)15(26-11(3)21)14(23)16(27-13)19(17)8-25-19/h5,12-16,22-23H,6-8H2,1-4H3/t12-,13+,14+,15+,16+,17+,18+,19-/m0/s1
SMILES=CC1=C[C@@H]2[C@](C[C@@H]1O)([C@]3([C@@H]([C@H]([C@H]([C@@]34CO4)O2)O)OC(=O)C)C)COC(=O)C
INSTRUMENT_TYPE=LC-ESI-ITFT
INSTRUMENT=Q-Exactive Orbitrap Thermo Scientific
COLLISION_ENERGY=50(NCE)
FORMULA=C19H26O8
PARENT=383.1695
SPLASH=splash10-05fr-1900000000-5b3f339e0ae78d8258b1
NUM_PEAKS=44
COMPOUND_NAME=Neosolaniol
SPECTRUM_ID=MSBNK-AAFC-AC000198
ADDUCT=[M+H]+
MS_LEVEL=MS2
PRECURSOR_MZ=383.1695
IONMODE=positive
NOMINAL_MASS=382
PARENT_MASS=382.16276
60.8855 47.0
66.3954 50.0
67.0542 89.0
79.0542 121.0
81.0699 75.0
91.0542 72.0
93.0699 245.0
95.0491 224.0
97.0648 263.0
105.0699 343.0
107.0491 97.0
109.0648 257.0
119.0855 145.0
121.0648 999.0
123.0441 84.0
123.0804 84.0
125.0597 98.0
128.0621 140.0
131.0855 234.0
133.0648 103.0
133.1012 70.0
135.0804 60.0
141.0699 63.0
142.0777 108.0
143.0855 346.0
145.0648 88.0
145.1012 338.0
147.0804 80.0
156.0934 109.0
157.1012 279.0
158.0726 119.0
159.0804 228.0
159.1168 137.0
169.1012 118.0
171.1168 78.0
173.0961 276.0
175.1118 121.0
184.0883 106.0
185.0961 82.0
187.1118 125.0
197.0961 97.0
199.1118 76.0
216.4486 65.0
240.8241 70.0
END IONS

BEGIN IONS
SYNON=(6aR,9aS)-4-Methoxy-2,3,6a,8,9,9a-hexahydrocyclopenta[c]furo[3',2':4,5]furo[2,3-h]chromene-1,11-dione
INCHIKEY=WWSYXEZEXMQWHT-WNWIJWBNSA-N
INCHI=InChI=1S/C17H14O6/c1-20-10-6-11-14(8-4-5-21-17(8)22-11)15-13(10)7-2-3-9(18)12(7)16(19)23-15/h6,8,17H,2-5H2,1H3/t8-,17+/m0/s1
SMILES=COC1=C2C3=C(C(=O)CC3)C(=O)OC2=C4[C@@H]5CCO[C@@H]5OC4=C1
INSTRUMENT_TYPE=LC-ESI-ITFT
INSTRUMENT=Q-Exactive Orbitrap Thermo Scientific
COLLISION_ENERGY=35(NCE)
FORMULA=C17H14O6
PARENT=315.0858
SPLASH=splash10-014i-0019000000-d22b946dac93c59195af
NUM_PEAKS=4
COMPOUND_NAME=Aflatoxin B2
SPECTRUM_ID=MSBNK-AAFC-AC000028
ADDUCT=[M+H]+
MS_LEVEL=MS2
PRECURSOR_MZ=315.0858
IONMODE=positive
NOMINAL_MASS=314
PARENT_MASS=314.07902
259.0601 50.0
287.0914 112.0
297.0757 35.0
315.0863 999.0
END IONS

BEGIN IONS
INCHIKEY=SUVZUTHVKIBYOH-KPZWWZAWSA-N
INCHI=InChI=1S/C21H18N4O2/c1-12-19-24-17-9-5-3-7-15(17)21(27)25(19)18(20(26)23-12)10-13-11-22-16-8-4-2-6-14(13)16/h2-9,11-12,18,22H,10H2,1H3,(H,23,26)/t12-,18+/m0/s1
SMILES=C[C@H]1C2=NC3=CC=CC=C3C(=O)N2[C@@H](C(=O)N1)CC4=CNC5=CC=CC=C54
INSTRUMENT_TYPE=LC-ESI-ITFT
INSTRUMENT=Q-Exactive Orbitrap Thermo Scientific
COLLISION_ENERGY=20(NCE)
FORMULA=C21H18N4O2
PARENT=359.1497
SPLASH=splash10-0a7i-0297000000-c8649f53da4d872fe7ab
NUM_PEAKS=5
COMPOUND_NAME=Fumiquinazoline F
SPECTRUM_ID=MSBNK-AAFC-AC000908
ADDUCT=[M+H]+
MS_LEVEL=MS2
PRECURSOR_MZ=359.1497
IONMODE=positive
NOMINAL_MASS=358
PARENT_MASS=358.14297
130.0651 308.0
170.06 45.0
228.0767 701.0
230.0924 458.0
359.1502 999.0
END IONS

BEGIN IONS
INCHIKEY=NNCYWYKIMLRIRQ-OQLLNIDSSA-N
INCHI=InChI=1S/C22H23N5O3/c1-4-21(2,3)22-10-17-18(28)25-15(9-13-11-23-12-24-13)19(29)26(17)20(22)27(30)16-8-6-5-7-14(16)22/h4-9,11-12,17,20,30H,1,10H2,2-3H3,(H,23,24)(H,25,28)/b15-9+
SMILES=CC(C)(C=C)C12CC3C(=O)N/C(=C/C4=CN=CN4)/C(=O)N3C1N(C5=CC=CC=C25)O
INSTRUMENT_TYPE=LC-ESI-ITFT
INSTRUMENT=Q-Exactive Orbitrap Thermo Scientific
COLLISION_ENERGY=10(NCE)
FORMULA=C22H23N5O3
PARENT=406.1868
SPLASH=splash10-0a4i-0001900000-ec43d86837ddc31ac578
NUM_PEAKS=3
COMPOUND_NAME=Hydroxy-roquefortine C
SPECTRUM_ID=MSBNK-AAFC-AC000781
ADDUCT=[M+H]+
MS_LEVEL=MS2
PRECURSOR_MZ=406.1868
IONMODE=positive
NOMINAL_MASS=405
PARENT_MASS=405.18008
338.1248 90.0
388.1809 40.0
406.1874 999.0
END IONS

BEGIN IONS
SYNON=(1R,4S,5S,6R,9R)-5,6-dihydroxy-4,11,11-trimethyl-8-methylidenebicyclo[7.2.0]undecan-3-one
INCHIKEY=NGQXJSTYWWTPOG-VGYDOTAVSA-N
INCHI=InChI=1S/C15H24O3/c1-8-5-13(17)14(18)9(2)12(16)6-11-10(8)7-15(11,3)4/h9-11,13-14,17-18H,1,5-7H2,2-4H3/t9-,10+,11-,13-,14+/m1/s1
SMILES=C[C@H]1[C@@H]([C@@H](CC(=C)[C@@H]2CC([C@@H]2CC1=O)(C)C)O)O
INSTRUMENT_TYPE=LC-ESI-ITFT
INSTRUMENT=Q-Exactive Orbitrap Thermo Scientific
COLLISION_ENERGY=20(NCE)
FORMULA=C15H24O3
PARENT=253.1793
SPLASH=splash10-0udi-0790000000-027b86a18db77b63f6bf
NUM_PEAKS=23
COMPOUND_NAME=Walleminone
SPECTRUM_ID=MSBNK-AAFC-AC000279
ADDUCT=[M+H]+
MS_LEVEL=MS2
PRECURSOR_MZ=253.1793
IONMODE=positive
NOMINAL_MASS=252
PARENT_MASS=252.17255
95.0855 43.0
109.0648 35.0
109.1012 36.0
119.0855 32.0
121.1012 63.0
123.1168 44.0
125.0597 39.0
133.1012 44.0
135.1168 31.0
137.0961 48.0
151.1481 36.0
155.0703 70.0
161.1325 52.0
163.1118 53.0
167.1067 37.0
175.1481 84.0
179.1067 131.0
179.1431 72.0
181.1223 67.0
197.1172 31.0
217.1587 65.0
235.1693 177.0
253.1798 999.0
END IONS

BEGIN IONS
SYNON=(3beta,4alpha,7alpha)-3,7,15-Trihydroxy-8-oxo-12,13-epoxytrichothec-9-en-4-yl acetate
INCHIKEY=XGCUCFKWVIWWNW-CAYGJDLQSA-N
INCHI=InChI=1S/C17H22O8/c1-7-4-9-16(5-18,12(22)10(7)20)15(3)13(24-8(2)19)11(21)14(25-9)17(15)6-23-17/h4,9,11-14,18,21-22H,5-6H2,1-3H3/t9-,11-,12-,13-,14-,15-,16-,17+/m1/s1
SMILES=CC1=C[C@@H]2[C@]([C@@H](C1=O)O)([C@]3([C@@H]([C@H]([C@H]([C@@]34CO4)O2)O)OC(=O)C)C)CO
INSTRUMENT_TYPE=LC-ESI-ITFT
INSTRUMENT=Q-Exactive Orbitrap Thermo Scientific
COLLISION_ENERGY=30(NCE)
FORMULA=C17H22O8
PARENT=355.1382
SPLASH=splash10-004i-0950000000-0b136e585d451c66b97f
NUM_PEAKS=62
COMPOUND_NAME=Fusarenone-X
SPECTRUM_ID=MSBNK-AAFC-AC000142
ADDUCT=[M+H]+
MS_LEVEL=MS2
PRECURSOR_MZ=355.1382
IONMODE=positive
NOMINAL_MASS=354
PARENT_MASS=354.13145
69.0335 50.0
71.0491 76.0
85.0284 63.0
95.0491 50.0
97.0648 38.0
99.0441 277.0
107.0491 68.0
109.0648 96.0
119.0855 51.0
121.0648 55.0
123.0441 139.0
125.0597 178.0
131.0855 56.0
135.0804 39.0
137.0597 999.0
141.0546 57.0
145.1012 46.0
147.0804 186.0
149.0597 100.0
149.0961 52.0
151.039 51.0
151.0754 40.0
153.0546 128.0
157.1012 40.0
159.0804 193.0
161.0597 123.0
161.0961 64.0
163.0754 218.0
165.091 309.0
171.0804 73.0
173.0961 143.0
175.0754 917.0
175.1082 40.0
177.0546 41.0
177.091 421.0
179.0703 64.0
183.0804 58.0
185.0961 117.0
187.0754 167.0
189.091 263.0
191.0703 196.0
191.1067 58.0
193.0859 93.0
199.0754 92.0
201.091 543.0
203.0703 41.0
203.1067 92.0
205.0859 643.0
211.0754 94.0
213.091 179.0
214.0624 38.0
217.0859 327.0
219.1016 161.0
223.0965 47.0
229.0859 868.0
231.1016 136.0
235.0965 51.0
241.0859 51.0
247.0965 453.0
259.0965 135.0
277.107 112.0
337.1282 51.0
END IONS

BEGIN IONS
INCHIKEY=HNMWDXUKPJZOQD-XPBDJYBLSA-N
INCHI=InChI=1S/C18H16O9/c1-18-5-6-11(8(26-18)4-10(27-18)17(23)24)16(22)12-7(19)3-9(25-2)15(21)13(12)14(6)20/h3,8,10,20,22H,4-5H2,1-2H3,(H,23,24)/t8?,10-,18?/m1/s1
SMILES=CC12CC3=C(C4=C(C(=O)C=C(C4=O)OC)C(=C3C(O1)C[C@@H](O2)C(=O)O)O)O
INSTRUMENT_TYPE=LC-ESI-ITFT
INSTRUMENT=Q-Exactive Orbitrap Thermo Scientific
COLLISION_ENERGY=35(NCE)
FORMULA=C18H16O9
PARENT=377.0861
SPLASH=splash10-01w1-0094000000-749bde06ed0acad189f9
NUM_PEAKS=27
COMPOUND_NAME=Isomarticin
SPECTRUM_ID=MSBNK-AAFC-AC000163
ADDUCT=[M+H]+
MS_LEVEL=MS2
PRECURSOR_MZ=377.0861
IONMODE=positive
NOMINAL_MASS=376
PARENT_MASS=376.07941
225.0546 40.0
239.0339 37.0
243.0652 106.0
245.0444 363.0
253.0495 215.0
255.0652 33.0
256.0366 39.0
257.0444 41.0
257.0808 40.0
259.0601 314.0
260.0679 44.0
261.0757 44.0
270.0523 42.0
271.0601 999.0
285.0757 458.0
287.055 649.0
289.0707 77.0
295.0601 78.0
299.055 295.0
302.0785 308.0
313.0707 838.0
315.0863 144.0
317.0656 238.0
323.055 50.0
326.0421 34.0
331.0812 35.0
341.0656 202.0
END IONS

