BEGIN IONS
TITLE=msLevel 2; retentionTime ; scanNum 
msLevel=2
SCANS=3
centroided=TRUE
PEPMASS=380.2683
CHARGE=1+
RT=5.51
IONMODE=Positive
ADDUCT=M+
ID=DNYBIOICMDTDAP
SMILES=CC(C)c1cnn2c(cc(NCCCCCCN)nc12)NCc1ccccc1
FORMULA=C22H32N6
FILENAME=2600129002_190419_MAS011_A1.mzXML
DrugBank.ID=Unknown
INCHIKEY=DNYBIOICMDTDAP-UHFFFAOYSA-N
CPD=BS-181
Status=experimental
CAS=N/A
NAME=BS-181
MSLEVEL=2
TIC=71384813.4375
PEPMASS_DEV=0.00101425948357327
SCAN_NUMBER=517
PARAM_SUBMIT_USER=
PARAM_SAMPLE_TYPE=
PARAM_COMMENTS=
PARAM_ALGORITHM=RMassBank
PARAM_CREATION_TIME=2021-06-26 21:49:30
DB=Inhouse
CLASS=Drug
NUM_PEAKS=52
PARAM_CONSENSUS=consensus
Superclass=Organoheterocyclic compounds
Class=Pyrazolopyrimidines
Subclass=Pyrazolo[1,5-a]pyrimidines
83.0856080927777 0.00191034847922462
91.0543067132739 0.5710415755822
98.0962515030991 0.0150386645192531
100.112092416473 0.110357934867285
109.195381432187 0.00426960185074008
117.138676133286 0.0291045733404362
125.082186439623 0.00167978929700882
125.094599448577 0.00162901772269082
125.107409185507 0.00191505229561762
126.102570765674 0.00374366936240725
134.070994953568 0.00182779487441641
151.098034281329 0.00270983717680409
164.093075646505 0.0169187602705524
164.105885496028 0.0141689324067807
165.113450419323 0.00550968891850779
166.12115192091 0.00670902190497413
166.133847372969 0.00634449471905669
174.102269705829 0.00945188342319815
175.097290759736 0.00194087817392968
176.093003282298 0.0359096326553666
176.105541089907 0.00813303071735136
177.113684771761 0.00430292797685867
178.108811920099 0.0906834354088733
178.121087646357 0.0196479952959221
188.104716579193 0.00163764573018199
190.159146268906 0.00434759996645171
191.116609057774 0.0631659150904404
192.124454557927 0.034205258125075
193.132328346474 0.0635002547317564
194.140444881477 0.0218787292339748
204.12450816493 0.040043342874042
204.136008461255 0.00266097973295769
205.132106126605 0.0489730252188519
206.002195713862 0.00454586929540119
213.09814453125 0.5
216.149652837311 0.0678164837136606
218.140151121761 0.0537494396624437
219.147083586085 0.00708548843715005
220.16862290787 0.0162794114831128
223.097971554482 0.00459920440477119
224.117514364288 0.00224385228486455
230.139212874784 0.00327630011504808
230.152579875587 0.00238630763962436
231.160537180138 0.00292808907535995
232.155468058235 0.0579767790682577
233.176189208043 0.00620460079197172
234.171013165143 0.00308987050063267
240.124595685478 0.0231390759259721
244.155944329044 0.00616803197013132
246.171948343526 0.0273911767460309
246.183609086711 0.00339172290735998
247.166055575678 0.0101321278941502
247.179269437998 0.0599205847672169
247.191791059612 0.00308590528474153
248.185990182596 0.0173599323206921
256.181076953364 0.0222264558756891
257.175287724006 0.0034275983176622
258.171150920587 0.172198409008328
258.18480008451 0.00717926200830809
260.186703458801 0.132567789252114
261.194822859698 0.0197775541305209
263.210288305828 0.015819099985457
264.219168515796 0.0107301306995295
265.144795239386 0.0740190734949676
266.140517691853 0.00570978457587147
267.160736976273 0.00973253929842755
272.186733617947 0.0701663934444818
273.19519991458 0.0562158758325171
274.202398978996 0.106216922248268
275.197730486684 0.600408524452467
276.218143452382 0.015447957799168
280.156607387901 0.0046676670727969
282.171143684078 0.0963423795052813
289.213605577153 0.363151858862407
290.221295442223 0.480770982685414
322.202790906339 0.0381085863927032
338.233325494888 0.00228779600726826
339.229268196351 1
347.223029793711 0.00681506575100941
348.218490729971 0.00754179410160329
350.233879889156 0.00717780286789177
351.051910400391 0.360217607192895
354.264702802403 0.00485729600414914
362.234885114276 0.0170925879541562
364.249673678186 0.21237218995632
379.261331415849 0.0907340517752698
380.267990988646 0.0143328436383731
END IONS

BEGIN IONS
TITLE=msLevel 2; retentionTime ; scanNum 
msLevel=2
SCANS=6
centroided=TRUE
PEPMASS=367.0956
CHARGE=1+
RT=5.12
IONMODE=Positive
ADDUCT=M+H
ID=ZNOLRTPMNMPLHY
SMILES=Cc1c(cccn1)C(=Nc1c2c(cc(c1OC)Cl)c1ccncc1[nH]2)O
FORMULA=C19H15ClN4O2
FILENAME=2600129002_190419_MAS011_A12.mzXML
DrugBank.ID=Unknown
INCHIKEY=ZNOLRTPMNMPLHY-UHFFFAOYSA-N
CPD=ML 120B dihydrochloride
Status=Unknown
CAS=N/A
NAME=ML 120B dihydrochloride
MSLEVEL=2
TIC=134360244.037109
PEPMASS_DEV=0.00107762314284216
SCAN_NUMBER=446
PARAM_SUBMIT_USER=
PARAM_SAMPLE_TYPE=
PARAM_COMMENTS=
PARAM_ALGORITHM=RMassBank
PARAM_CREATION_TIME=2021-06-26 21:50:59
DB=Inhouse
CLASS=Drug
NUM_PEAKS=36
PARAM_CONSENSUS=consensus
Superclass=Organoheterocyclic compounds
Class=Indoles and derivatives
Subclass=Pyridoindoles
92.0494900453007 0.00205130942431294
94.0651100061982 0.00123201032309763
110.059979193296 0.00515144875142311
110.059979193296 0.00515144875142311
120.044303248004 0.0822149261375815
120.044303248004 0.0822149261375815
133.076025530857 0.000869390196197484
168.068105164235 0.000757335147853578
203.036694279003 0.00129185304360625
203.036694279003 0.00129185304360625
229.039033462247 0.00773101490887936
229.039033462247 0.00773101490887936
232.025958577409 0.00768243178825828
234.023066255895 0.00138521849573694
246.042958551311 0.000575798890967685
246.042958551311 0.000575798890967685
247.049579671049 0.0325747218503044
247.049579671049 0.0325747218503044
249.046587845557 0.00864340436577416
250.054110605387 0.000551799933246161
272.081062915772 0.00054154525090884
272.081062915772 0.00054154525090884
274.038390597636 0.00175379696168257
306.042938950076 0.000869896515021614
306.042938950076 0.000869896515021614
308.061050855254 0.0111824502295066
309.066230821768 0.0021724540725931
309.066230821768 0.0021724540725931
325.08506516809 0.00351510003333343
325.08506516809 0.00351510003333343
334.061588676957 0.00892953599035766
335.045810517547 0.00747287135802744
335.069276247723 0.0167832373924492
336.053432168789 0.00131607990732055
349.085011090544 1
352.072201781459 0.0672310291747507
END IONS

BEGIN IONS
TITLE=msLevel 2; retentionTime ; scanNum 
msLevel=2
SCANS=7
centroided=TRUE
PEPMASS=303.2179
CHARGE=1+
RT=4.62
IONMODE=Positive
ADDUCT=M+H
ID=KBUZBQVCBVDWKX
SMILES=CCOCCn1c2ccccc2nc1N1CCCN(C)CC1
FORMULA=C17H26N4O
FILENAME=2600129002_190419_MAS011_A2.mzXML
DrugBank.ID=DB01084
INCHIKEY=KBUZBQVCBVDWKX-UHFFFAOYSA-N
CPD=emedastine
Status=approved
CAS=N/A
NAME=emedastine
MSLEVEL=2
TIC=745034110.742188
PEPMASS_DEV=0.00140687837504099
SCAN_NUMBER=447
PARAM_SUBMIT_USER=
PARAM_SAMPLE_TYPE=
PARAM_COMMENTS=
PARAM_ALGORITHM=RMassBank
PARAM_CREATION_TIME=2021-06-26 21:51:33
DB=Inhouse
CLASS=Drug
NUM_PEAKS=33
PARAM_CONSENSUS=consensus
Superclass=Organoheterocyclic compounds
Class=Benzimidazoles
Subclass=
84.080749247903 0.000958547630496245
96.0808048591199 0.0199330443551972
98.0964523449702 0.0668487599390304
113.10729780287 0.00606976496564541
133.0634152381 0.00172738031620141
146.071004720435 0.00175272600095871
159.079380077068 0.00166456846305529
160.086627102227 0.00112786351568986
161.094926863476 0.00088583886266978
172.086717880483 0.00837190897706886
173.095372182632 0.00192141676367195
173.095372182632 0.00192141676367195
174.10242442169 0.0588795614073253
188.118237095902 0.00121989646398493
189.10226562517 0.00176314814066794
191.117991553207 0.0127435589557299
200.118079812058 0.0392833283332376
202.133546852345 0.00222095050372019
206.128747048365 0.00783798719887638
218.128869046325 0.0764283005031931
230.127758649539 0.00147330227224869
231.160830012747 0.0172853099524806
231.160830012747 0.0172853099524806
232.144704260603 0.0624284158419114
234.160227593929 0.0171963476511775
244.144753156337 0.00409906726232876
245.151928155194 0.0012262653845635
246.160152928202 1
257.17537246611 0.00285587794077996
260.175986754823 0.00217731215602193
272.176085977318 0.0142841343529895
275.185780350166 0.0290008866161434
301.202217871402 0.0167970049277596
END IONS

BEGIN IONS
TITLE=msLevel 2; retentionTime ; scanNum 
msLevel=2
SCANS=11
centroided=TRUE
PEPMASS=507.1405
CHARGE=1+
RT=6.82
IONMODE=Positive
ADDUCT=M+K
ID=ZTFBIUXIQYRUNT
SMILES=C(CCn1ccnn1)Cc1ccc(cc1)OCc1coc(/C=C/c2ccc(cc2)C(F)(F)F)n1
FORMULA=C25H23F3N4O2
FILENAME=2600129002_190419_MAS011_A3.mzXML
DrugBank.ID=DB12682
INCHIKEY=ZTFBIUXIQYRUNT-MDWZMJQESA-N
CPD=mubritinib
Status=investigational
CAS=N/A
NAME=mubritinib
MSLEVEL=2
TIC=163550.349121094
PEPMASS_DEV=0.000261842083820785
SCAN_NUMBER=616
PARAM_SUBMIT_USER=
PARAM_SAMPLE_TYPE=
PARAM_COMMENTS=
PARAM_ALGORITHM=RMassBank
PARAM_CREATION_TIME=2021-06-26 21:57:49
DB=Inhouse
CLASS=Drug
NUM_PEAKS=3
PARAM_CONSENSUS=consensus
Superclass=Benzenoids
Class=Benzene and substituted derivatives
Subclass=Phenylbutylamines
93.1464233398438 0.000924348000671741
105.029907226562 0.00726964509991973
107.049381054849 0.000856566632927546
117.090972900391 0.00027306373161209
120.102142333984 0.6
121.065199254435 0.000505721124799182
128.062547831687 0.00175050742442037
129.031356811523 0.0133596281173348
129.070978251201 0.000137865459056611
131.050082514634 0.000121264715115668
133.064427461723 0.0178860541433279
134.064559936523 0.00150099655400105
145.065754607409 0.00018152305012566
147.080855420064 0.00104086662736687
149.096614603419 0.00205231649406044
155.073510832533 0.00556906424848893
156.04541015625 0.000265627368415517
156.079787178469 0.000682049956768395
157.066036874939 0.00038028120822471
157.101681564761 0.000244428013251715
160.076215136618 0.000516793719117771
160.112818617642 0.000194804613267974
161.059844970703 0.00198420628866731
161.097182737997 0.000371340247233287
161.121047590259 0.000240576938348832
169.014724731445 0.0008839211634086
170.097695801069 0.000182449669288968
171.081815779713 0.000163158010555404
171.117368916394 0.000258387776964805
172.112872002318 0.000259472486982636
173.096658759575 0.00129167544484879
175.112373765993 0.00240530412162953
177.051384580372 0.0216191368629405
178.052606312891 0.00173969596355653
182.060753479479 0.00190204409796916
183.041809082031 0.00743362810159191
184.048793792724 0.000697673447760868
184.076287405831 0.0015339645860872
185.096057128906 0.00102468969097638
188.107019042969 0.00145303247377734
189.115066528321 0.00649661840211844
191.141448974609 0.00013182468217935
198.060735066732 0.0152259078084176
199.03689066569 0.00309266167771504
199.063682556153 0.000375912990311077
199.074661254883 0.000162138866825635
200.039947509766 0.000129152814330815
200.068359375 0.000123971392440984
200.106994628906 0.000272756481640856
201.091705322266 0.000223114575974356
202.065444946289 0.000243376367233391
202.122919718424 0.00229556225286999
203.105133056641 0.000110798485742014
204.062182617187 0.00869079135996713
205.064949035645 0.00207481937218521
206.077682495117 0.000129794211292178
209.096282958984 0.000203746966994773
215.067329406738 0.0019557966323452
218.077972412109 0.000320300658517542
218.129482269287 0.00095862580042292
222.073440551758 0.000216271336078076
223.060359180994 0.000363189064137979
224.069105596028 0.25419987984331
225.072058076716 0.0524050463894068
226.07668329289 0.000572490940036311
226.122616673218 0.00789059763412988
234.07275415554 0.00311676788010852
238.087072276783 0.000127010587261002
239.102905273438 0.6
240.10661315918 0.0700477754821049
241.110305786133 0.00496745422742893
243.151397600747 0.000111443914710764
244.145004272461 0.00048587973970375
246.073622596657 0.000193286247005259
252.063381055094 1
253.066268920898 0.0662959739169551
254.0712736761 0.00298058568375439
254.129522795001 0.00302222436460905
270.073944091797 0.00186455582789432
271.080702999228 0.00052127687466503
271.155639648438 0.000974949242063809
272.140583674993 0.000175993182773015
272.158955346944 0.000120106836475234
284.089019775391 0.00291148891711216
293.089416503906 0.0398742257892821
294.09360928267 0.00864074273573788
295.097086414256 0.000102044982315406
301.091347930329 0.000256983407246821
314.101182619877 0.00148115255179169
315.105133056641 0.000908419701627554
321.095944845569 0.00451807652338786
322.098136978663 0.000881387789247148
358.104522705078 0.00335136041246956
358.135229301567 0.00382989904631588
360.137512207031 0.000625754530017929
360.168377430281 0.000382023727936265
371.159851074219 0.000176458086083061
377.110473632812 0.000670022892311911
377.133022695576 0.00154318686928817
381.141557226863 0.000168727320789472
391.176666259766 0.000148867663468219
397.121551513672 0.000146264882879962
398.146300297077 0.00012015615931369
400.151428222656 0.00294045135191679
400.164669065597 0.00229435797106611
401.154846191406 0.000256932221639314
401.16610181797 0.000301600800746079
429.171529769589 0.000879989922072115
430.173941196019 0.000332661271983971
441.188662527996 0.00500557053559196
449.178607239847 0.00632046449336287
469.183807373047 0.138462145839931
END IONS

BEGIN IONS
TITLE=msLevel 2; retentionTime ; scanNum 
msLevel=2
SCANS=15
centroided=TRUE
PEPMASS=502.2564
CHARGE=1+
RT=5.58
IONMODE=Positive
ADDUCT=M+Na
ID=GBOGMAARMMDZGR
SMILES=C[C@@H]1CCC[C@H](C=CC(=O)O[C@]23[C@@H](C=CC1)[C@@H](C(=C)[C@@H](C)[C@H]2[C@H](Cc1ccccc1)N=C3O)O)O
FORMULA=C29H37NO5
FILENAME=2600129002_190419_MAS011_A5.mzXML
DrugBank.ID=Unknown
INCHIKEY=GBOGMAARMMDZGR-WIPIJLBNSA-N
CPD=Cytochalasin B
Status=Unknown
CAS=N/A
NAME=Cytochalasin B
MSLEVEL=2
TIC=5520099.47314453
PEPMASS_DEV=-0.000635749414102266
SCAN_NUMBER=482
PARAM_SUBMIT_USER=
PARAM_SAMPLE_TYPE=
PARAM_COMMENTS=
PARAM_ALGORITHM=RMassBank
PARAM_CREATION_TIME=2021-06-26 22:03:32
DB=Inhouse
CLASS=Drug
NUM_PEAKS=28
PARAM_CONSENSUS=consensus
Superclass=
Class=
Subclass=
81.069911816461 0.0199620070795477
91.0542707045321 0.0952116890847757
93.069937705199 0.0280012111753675
95.0855322994061 0.0290915361651904
105.069867022013 0.0486169223937895
107.049043164428 0.0134266767499967
107.085622307864 0.0460370133584384
109.064789385424 0.00551640493172286
109.101135853469 0.00742995715765189
111.044081673736 0.0317810586853824
117.069917631067 0.0255285372258318
119.085524601453 0.0525228238065727
120.08076900264 0.190230860978108
121.064704929087 0.0116953269374567
121.101245929947 0.0266945146961648
123.08046038379 0.0105877895662457
129.069948351249 0.0161221700750779
131.085512373611 0.0299630936314567
133.064849960309 0.0142234994713307
133.101272692981 0.0488403622152959
135.080505756544 0.02541426466296
135.116875087039 0.0128810505380022
136.07563837971 0.0154595033874644
141.069809607128 0.0108129064792516
143.085541282591 0.0241581946435531
144.041931152344 0.0209400946295009
145.10112027436 0.0572217615530195
146.059951935715 0.0476313338425436
147.080551173377 0.0179361837604957
147.116760277856 0.0347832331144817
149.096031144149 0.0142723879171034
149.132514907851 0.00921502911820061
151.075286829553 0.00886593821499153
155.085563743065 0.0148983074218542
157.101127946282 0.032952146608871
159.080452375994 0.012015374949015
159.116875101508 0.0725622478550097
160.075847438773 0.00505275178080993
161.096107900907 0.0488218680085055
161.132385674981 0.0491048167063263
163.111735715547 0.00724181233763794
165.090892052768 0.00850432378312512
167.08558180143 0.00509770464850979
169.101173959629 0.0374077019903312
171.080460207406 0.00989566007034151
171.117012640326 0.0279958758956762
172.075669061985 0.114775605806636
173.096192276428 0.0286000137514516
173.132386129913 0.0162527956486642
174.091477491036 0.0324033248878312
175.111504884529 0.040772163016331
179.08558369896 0.00438621677737415
179.106776082869 0.0142603716519509
181.101350922127 0.0150662040559782
183.116919076466 0.0246093921452313
184.075661340537 0.0124018459416276
185.095979137199 0.00588034024328922
185.132356120051 0.00734862458390256
186.091550180406 0.0306810330797561
187.111671257097 0.0505458710554921
189.127362260956 0.018885015565847
191.106623242597 0.00445574988802089
193.101068157781 0.010199710495302
195.116814138141 0.0339110484451745
198.091425792239 0.0295932995522396
199.111479412156 0.0122808148314414
199.132764071412 0.00904116026121423
199.148208854087 0.00907900317931523
200.107164675193 0.0210118888339611
205.122562881864 0.0101720950342565
207.116641871489 0.0189330331794121
209.132548850039 0.0302872638610693
211.111819253245 0.00477206275686624
211.148212015891 0.0215997489280683
212.106978820346 0.0124011992131575
219.116831231762 0.00901888291955561
221.132570673785 0.0234678870924255
223.147974162543 0.018433576919811
225.164070674559 0.0258909833566769
226.122622884728 0.0129853958510352
233.132534347882 0.0138473243385905
235.097259521484 0.0257123690713179
235.148353681496 0.0323698522611858
236.106669527585 0.00545437858840228
237.163943856338 0.0134225358910953
238.122464819332 0.0216152491337497
240.138283512767 0.110236997549258
241.142339932852 0.0122525601799545
242.154047852714 0.00547083737848879
247.148290146715 0.00537395581305175
248.104232788086 0.0486608411248336
249.163524440884 0.00429190987228017
250.122447055066 0.0615504696242148
250.158918462794 0.00443758707252618
251.128551406186 0.0195834683237933
251.179477679815 0.0373116298161359
252.138341319137 0.108363405536293
253.143392964821 0.0198446260089292
253.158778632423 0.0109527199541371
253.195384284324 0.00431219795118548
254.117995770151 0.0162078309942489
254.153853970218 0.0276588483040491
256.133050345211 0.0232221538166863
261.163715466291 0.00903310914085798
262.122125018762 0.013275657581371
263.179525378548 0.00527540619526108
264.008483886719 0.00634063633030124
264.138475186294 0.0821570215325426
265.143022673763 0.0101936933849098
266.154170109303 0.0738898686709981
267.157898223566 0.0097999959209806
268.133518720052 0.0332501837977206
268.169771105353 0.00751012629545933
269.138009259521 0.0112209923912697
269.190209817149 0.0140663014354728
270.149030796042 0.0192447741024166
271.169351435752 0.0106531011680676
271.994598388672 0.00592297875168841
276.138147684448 0.020780113134215
278.153962161058 0.0782435198082745
279.158787989488 0.00931268008589465
279.174564549323 0.0384954400657342
280.133185685415 0.0195039158395365
280.167674042216 0.00877639976530158
281.189683098453 0.00566574108070446
282.148905732863 0.0344878603129483
284.162939413272 0.0338114586180632
290.153165964106 0.0132329421892101
292.169570990117 0.0228611183389408
294.148821251868 0.0171054081842934
294.18499988872 0.00914581584600969
296.165105202033 0.0212553891265687
297.184608519042 0.0410424715374615
298.181289289877 0.00443170988772345
299.200280963177 0.00538406994241677
304.170064059459 0.00450839616199371
306.185897999803 0.0048861805088007
307.169718226762 0.0143719121372242
307.192167084276 0.00631314692143024
308.164132462361 0.00806432911272521
310.141235351562 0.0248528386204408
310.178677287236 0.0115389289579725
317.176719692249 0.00864237655612888
318.183930122595 0.048471271339654
320.200802682084 0.0173814736268063
325.180251996504 0.0163143043263362
328.151733398438 0.310730239581094
330.185543880822 0.00910529476496467
332.200159575768 0.0425164600048
333.204778612195 0.011130860796058
334.181087306767 0.00631048621001879
334.215642653788 0.0241895319004344
335.187336571999 0.00489220666032237
336.194504388815 0.0082374518903286
338.210841307157 0.0182565223744836
340.200012207031 0.0073832855919365
342.184958997696 0.0229010466940343
343.190128529577 0.00535418006071408
344.200930076054 0.0177589295315784
346.217389365769 0.013130926640197
350.210453099189 0.025126036548923
352.227735744977 0.00680917209251785
358.215692445717 0.0138121273363766
360.195898360138 0.033208257112289
361.201199357015 0.0052095242422446
362.210412729293 0.0180610341672992
364.227781420419 0.00611742860136129
375.180206298828 0.0161589840069677
376.227167508579 0.0226229600325151
378.206504178787 0.0896591201748232
383.237922132604 0.00468131262645932
384.232788601689 0.0187185239836343
393.191375732422 0.0653488566461231
394.194671630859 0.0132580611356801
394.2376703041 0.0430739303540402
398.248161356182 0.0997892413916622
399.252527308936 0.0167225061327325
401.195861816406 0.0103812295329395
401.246825344298 0.061871211959964
403.249510773915 0.00599440003612054
408.232626041186 0.0287135246598993
409.23850093759 0.0110359024335728
411.201049804688 0.0433271488093473
415.035003662109 0.0077876785640496
416.258413660967 0.161616319228761
417.2620457848 0.055923639146507
418.1982421875 0.0457826172795005
419.205688476562 0.0445273470394011
419.258399987646 0.0225581900144779
426.242793895522 0.157167576841822
427.246944805489 0.061651980816428
434.269048003667 0.0395496700090891
441.237945556641 0.00781397067023205
444.253362129314 0.611017223514948
451.211181640625 0.010019735263697
462.26384366248 1
466.235168457031 0.0252023656830493
469.222839355469 0.0456953522433583
480.274261474609 0.499074736250534
484.24560546875 0.5
END IONS

BEGIN IONS
TITLE=msLevel 2; retentionTime ; scanNum 
msLevel=2
SCANS=20
centroided=TRUE
PEPMASS=390.1911
CHARGE=1+
RT=5.46
IONMODE=Positive
ADDUCT=M+NH4
ID=NQWVSMVXKMHKTF
SMILES=COc1ccc(C[C@H]2COC(=O)[C@@H]2Cc2ccc(c(c2)OC)O)cc1OC
FORMULA=C21H24O6
FILENAME=2600129002_190419_MAS011_A9.mzXML
DrugBank.ID=Unknown
INCHIKEY=NQWVSMVXKMHKTF-JKSUJKDBSA-N
CPD=arctigenin
Status=experimental
CAS=N/A
NAME=arctigenin
MSLEVEL=2
TIC=6875633.28857422
PEPMASS_DEV=-0.001196616906983
SCAN_NUMBER=475
PARAM_SUBMIT_USER=
PARAM_SAMPLE_TYPE=
PARAM_COMMENTS=
PARAM_ALGORITHM=RMassBank
PARAM_CREATION_TIME=2021-06-26 22:05:01
DB=Inhouse
CLASS=Drug
NUM_PEAKS=50
PARAM_CONSENSUS=consensus
Superclass=Lignans, neolignans and related compounds
Class=Furanoid lignans
Subclass=Tetrahydrofuran lignans
101.059852600098 0.0161358607230643
107.01042175293 0.0193936299189176
107.049140219338 0.000435095680780502
109.064768184987 0.00108119626634581
111.043920052992 0.000503231954926252
117.069831350097 0.000433215565254323
121.064806582499 0.032532837859953
122.036330841743 0.000728355837933193
122.072334009217 0.000611919419691604
129.054796504261 0.000507870493906097
131.049046799298 0.000795922157134376
133.064705395535 0.000315233448446829
136.052030959862 0.0010942650445683
137.059648961735 1
145.064841346939 0.00603988933090122
146.072858971993 0.00276607564552154
147.04399944993 0.000701303297214733
147.065209114357 0.000594721722580713
147.080548770045 0.00707057360353341
149.023561781019 0.00194580822209501
149.059733056015 0.0548660918471295
151.075336867306 0.596680056755165
152.083428519648 0.0503366022818635
157.06478617489 0.000561041347307761
159.04167175293 0.5
161.059706625563 0.00413863671183769
162.067956307579 0.002803130424924
163.075380186881 0.0067679134283498
164.083427801223 0.000431057094373885
165.054599308757 0.0310533193790895
165.090976189248 0.00499084196914725
167.069794653101 0.000714990818977843
174.065643310547 0.0260457631983357
175.036392211914 0.5
175.075489361107 0.00661693710196106
176.082801244743 0.00119472789534558
177.054619222024 0.0339872774789476
177.090950344626 0.132702478744043
179.070281418105 0.0129961992084931
181.085617323431 0.000374636903495546
187.075342269301 0.0059004893248195
188.083323735894 0.000895720135942063
189.091027879511 0.0101749619701558
191.0704366044 0.0021821769526299
191.106516242437 0.00378253101509178
193.086008699656 0.00222036555103396
194.057326285858 0.00151789495248281
199.075099598852 0.000342252906874813
200.068756103516 0.0200330536552795
201.090928095231 0.014953200935805
203.070821931726 0.000465318914249174
203.106662132306 0.0075732685131391
205.085882685787 0.00981423715491659
208.073276417901 0.00246671587189393
217.085786929914 0.0128147103618353
219.101664524757 0.282916034812542
220.07281088674 0.00152851671659673
221.080778918226 0.00352284634612745
231.079917498368 0.000336434668698383
231.102232729682 0.00137646312243268
234.088402963156 0.00275046762975044
235.096502230832 0.0132781502342922
235.111638977069 0.00567435905011488
237.112071459982 0.111659107779009
245.096076892957 0.00283035256592745
246.103405008687 0.000875331200535291
247.096818027466 0.00127622511329713
248.103184629547 0.00107334141558046
249.112230262181 0.00994070302736798
252.186569213867 0.252104586978695
262.09874574812 0.00141054602522575
263.106560641222 0.0107726026291029
271.096756230953 0.000440688285850028
273.091473951126 0.00676993710673824
274.098497098204 0.00576846117344876
277.122282578945 0.014696003290832
290.093750807459 0.00413594560232966
291.101122639746 0.00486908013459436
293.11658500329 0.000343337179652675
295.132851022886 0.0552039975263522
305.117444913228 0.254010468283745
308.103601531378 0.000547542414410123
319.13272285186 0.000318742237111776
321.112582656921 0.000548977602844024
322.120121612691 0.00662133029765153
323.127796852132 0.0967553132191184
327.158973354776 0.00282865208657962
335.126583623294 0.00103546386491551
337.143343255573 0.117638371912302
339.123334209028 0.000649046862093549
355.116455078125 0.0262566364873492
355.154085651599 0.314697852568973
358.140556369166 0.000810586407414683
372.156828538043 0.0235073752310193
373.164531577704 0.242220085747581
380.122741699219 0.0287149563401984
394.137237548828 0.226207310131494
END IONS

BEGIN IONS
TITLE=msLevel 2; retentionTime ; scanNum 
msLevel=2
SCANS=24
centroided=TRUE
PEPMASS=438.1537
CHARGE=1+
RT=5.09
IONMODE=Positive
ADDUCT=M+Na
ID=VUVUVNZRUGEAHB
SMILES=Cc1c(c(C)on1)c1cc2c(cc1OC)c1c(cn2)nc(n1[C@H](C)c1ccccn1)O
FORMULA=C23H21N5O3
FILENAME=2600129002_190419_MAS011_B10.mzXML
DrugBank.ID=Unknown
INCHIKEY=VUVUVNZRUGEAHB-CYBMUJFWSA-N
CPD=I-BET151
Status=experimental
CAS=N/A
NAME=I-BET151
MSLEVEL=2
TIC=986979.819580078
PEPMASS_DEV=-0.000762995513304643
SCAN_NUMBER=437
PARAM_SUBMIT_USER=
PARAM_SAMPLE_TYPE=
PARAM_COMMENTS=
PARAM_ALGORITHM=RMassBank
PARAM_CREATION_TIME=2021-06-26 22:06:08
DB=Inhouse
CLASS=Drug
NUM_PEAKS=10
PARAM_CONSENSUS=consensus
Superclass=Organoheterocyclic compounds
Class=Quinolines and derivatives
Subclass=Imidazoquinolines
96.0405899011976 0.000564425753702251
106.0651256761 0.159281683923828
107.0689279481 0.0125113345807562
223.999771118164 0.021126673902498
226.099915752507 0.00306600219976511
227.106361268918 0.00574400390825136
232.01774597168 0.0270420651123673
253.074774373637 0.00640495378022479
254.0798269801 0.00286923036301884
255.0638425681 0.00156918241937176
270.0873176641 0.0031347905709779
270.1039164881 0.0034086804736589
281.069393954977 0.0213635890974597
282.0747416001 0.00286514166217477
293.10257617807 0.000623694033944322
296.090707248028 0.008655724975095
307.119659423828 0.0726230655433324
312.1144811721 1
313.11713600503 0.0518701035065881
332.087738037109 0.147561838303465
333.095306396484 0.5
334.097900390625 0.185968240479914
397.126373291016 0.136816302442122
398.1611513001 0.000817312007489539
END IONS

BEGIN IONS
TITLE=msLevel 2; retentionTime ; scanNum 
msLevel=2
SCANS=28
centroided=TRUE
PEPMASS=265.1421
CHARGE=1+
RT=4.97
IONMODE=Positive
ADDUCT=M+
ID=PTJGLFIIZFVFJV
SMILES=C(CCCC(=NO)O)CCC(=Nc1cccnc1)O
FORMULA=C13H19N3O3
FILENAME=2600129002_190419_MAS011_B2.mzXML
DrugBank.ID=DB12847
INCHIKEY=PTJGLFIIZFVFJV-UHFFFAOYSA-N
CPD=pyroxamide
Status=investigational
CAS=N/A
NAME=pyroxamide
MSLEVEL=2
TIC=3792981.16137695
PEPMASS_DEV=0.00149463524283924
SCAN_NUMBER=448
PARAM_SUBMIT_USER=
PARAM_SAMPLE_TYPE=
PARAM_COMMENTS=
PARAM_ALGORITHM=RMassBank
PARAM_CREATION_TIME=2021-06-26 22:07:24
DB=Inhouse
CLASS=Drug
NUM_PEAKS=26
PARAM_CONSENSUS=consensus
Superclass=Organoheterocyclic compounds
Class=Pyridines and derivatives
Subclass=
80.0494240302833 0.000163258741269251
81.0698844034845 0.00128189785935745
83.0855203239518 0.014880263527938
84.0440696693919 0.000269870528072649
84.0847942524313 0.0011177555342426
85.1011774835818 0.00447976463810662
87.0806876608704 0.000248216928407935
91.0542597295792 0.00135666322031422
93.0444772723717 0.00038759481148442
93.0574778090213 0.000239974279450771
93.0699347175319 0.00576554380389435
94.0525532221292 0.00171709470738237
95.0603111865693 1
96.0443694380551 0.0348346429552469
96.0572324290542 0.00346767235687214
97.0628256061605 0.000748690046121554
98.0598489654647 0.000214695346627407
98.0964319444328 0.00256345240897333
99.0998558622332 0.000167821206829221
102.091364239037 0.000178848665352776
103.053985776803 0.000314076027605733
105.044578730539 0.000187601696838475
107.060311670465 0.000252515596857154
107.072732341059 0.000213000283657118
108.080788014763 0.001716273474748
109.064851812204 0.00110358156283451
110.060099426529 0.000230843899886638
110.096423281452 0.00115259491969327
111.080418076753 0.0200177798996079
112.083828835203 0.000512990504320946
118.065241484771 0.000157765024932348
119.060320956605 0.000314053617750463
121.039631681535 0.0410315776066535
121.064746643316 0.00342469085900638
122.068236227747 0.000221095478076898
126.091346258255 0.00274391042537572
128.106967268551 0.000704011918120231
129.091234027403 0.000129257783035714
131.060652898039 0.000173639086343198
133.076038926745 0.00148583364137953
135.055384396468 0.00769303423394458
136.063226250403 0.0101528803425818
136.075568563668 0.000451471331579107
137.060139913161 0.000229504776267068
137.071251385433 0.00186087052174895
139.075296089367 0.0184688584240486
143.106701131004 0.0020692895931643
144.101896276603 0.00266107620735485
147.055235830601 0.000371511928342309
147.091566987036 0.000211767703112347
148.063230999081 0.000227028333240079
149.070912870183 0.0178080228174603
150.079116226464 0.000318283997748958
154.086260322731 0.00546588475984414
155.094515442718 0.000312544437213709
157.085825656284 0.0152994437033017
161.107190086784 0.000425163278134078
163.086693319575 0.00618824667935122
163.122932995648 0.00554336337215857
172.096787608542 0.0146383010539345
177.102379520721 0.000713525325236428
187.123013001288 0.00584655315815094
191.117897045728 0.0141367676894683
203.11773143764 0.000206674235646699
205.123051833693 0.00148610413832995
205.13355510235 0.0442139665606736
213.103028168323 0.000165900043051119
215.117562919199 0.00366373656520891
230.129088712302 0.000176883163175458
231.113423540381 0.00153100342323764
233.12820462764 0.797459107060917
246.123899470441 0.000156887969810557
248.139046368769 0.635607652642566
265.142499900661 0.00717242527250214
270.121154785156 0.268251610683658
287.12451171875 0.0218877053206179
END IONS

BEGIN IONS
TITLE=msLevel 2; retentionTime ; scanNum 
msLevel=2
SCANS=34
centroided=TRUE
PEPMASS=349.073
CHARGE=1+
RT=4.75
IONMODE=Positive
ADDUCT=M+Na
ID=GDVRVPIXWXOKQO
SMILES=c1cc(cc(c1)O)CN=C(Nc1nc(cs1)c1ccncc1)O
FORMULA=C16H14N4O2S
FILENAME=2600129002_190419_MAS011_B5.mzXML
DrugBank.ID=Unknown
INCHIKEY=GDVRVPIXWXOKQO-UHFFFAOYSA-N
CPD=RKI-1447
Status=experimental
CAS=N/A
NAME=RKI-1447
MSLEVEL=2
TIC=244379.388671875
PEPMASS_DEV=-4.67217111858832e-05
SCAN_NUMBER=411
PARAM_SUBMIT_USER=
PARAM_SAMPLE_TYPE=
PARAM_COMMENTS=
PARAM_ALGORITHM=RMassBank
PARAM_CREATION_TIME=2021-06-26 22:18:10
DB=Inhouse
CLASS=Drug
NUM_PEAKS=7
PARAM_CONSENSUS=consensus
Superclass=Organoheterocyclic compounds
Class=Azoles
Subclass=Thiazoles
104.0494756121 0.00016645172614332
105.044842561784 0.0001277714472193
107.0491412641 0.00159450883821677
124.0756903601 0.000649040838442922
146.057556152344 0.0445523604619146
172.03645324707 0.0359908034605355
177.036675057509 0.000175971575767432
178.043930530008 0.340557451011454
179.0477985801 0.0138515113636252
187.096893310547 0.0634988785416756
200.025192260742 1
204.023859859602 0.333333333333333
205.0270631361 0.0310186544049797
206.0227492641 0.015009483161212
284.085754394531 0.000227612081463659
310.064880371094 0.000152514058575588
END IONS

BEGIN IONS
TITLE=msLevel 2; retentionTime ; scanNum 
msLevel=2
SCANS=38
centroided=TRUE
PEPMASS=377.206
CHARGE=1+
RT=5.62
IONMODE=Positive
ADDUCT=M+Na
ID=BTIHMVBBUGXLCJ
SMILES=CC[C@H](CO)N=c1[nH]c(c2c(n1)n(cn2)C(C)C)NCc1ccccc1
FORMULA=C19H26N6O
FILENAME=2600129002_190419_MAS011_B8.mzXML
DrugBank.ID=DB06195
INCHIKEY=BTIHMVBBUGXLCJ-OAHLLOKOSA-N
CPD=roscovitine
Status=investigational
CAS=N/A
NAME=roscovitine
MSLEVEL=2
TIC=10816533.6147461
PEPMASS_DEV=-0.000890254372911619
SCAN_NUMBER=490
PARAM_SUBMIT_USER=
PARAM_SAMPLE_TYPE=
PARAM_COMMENTS=
PARAM_ALGORITHM=RMassBank
PARAM_CREATION_TIME=2021-06-26 22:20:09
DB=Inhouse
CLASS=Drug
NUM_PEAKS=6
PARAM_CONSENSUS=consensus
Superclass=Organoheterocyclic compounds
Class=Imidazopyrimidines
Subclass=Purines and purine derivatives
91.0542877578653 0.614838630748161
115.086398394174 0.00121523378053874
139.16732206352 0.00113505462861083
145.101414305353 0.00540185743506916
150.065156856799 0.00658668953547566
151.073100134407 0.0153478310381233
163.073435444533 0.011841273671425
175.072542466536 0.00145899884400235
177.101332987913 0.00432583917330881
191.104940717346 0.0201438473662612
192.11253452411 0.331384164644677
193.120952342317 0.0511860532089176
199.09763687619 0.00158275537882206
203.104659573876 0.0109890138185487
205.120315076713 0.109924104201737
217.120041985881 0.0595523733580331
219.135606504657 0.00974059689351338
220.144059566387 0.00450362479190497
221.114697198385 0.0105146405900656
223.155144453806 0.00145056987522113
231.135445223134 0.0300005258351296
233.150671285142 1
234.158448364751 0.262195120859012
235.130062319011 0.0183530146283594
240.112157486081 0.00285266309996255
241.118926223606 0.338225417381214
243.124495631415 0.00201234722345617
245.149874440374 0.0191283653560248
246.157733907212 0.0122891823186488
247.165539939459 0.0719053734998977
248.150464710372 0.00244532611887237
253.119180290709 0.00301483099119329
256.140747070312 1
263.161423998891 0.0260436836554366
264.168804929255 0.0490811621652702
266.140910759638 0.0137842090064889
277.064147949219 0.171234609037363
277.177411138309 0.00773803491101934
281.149908159955 0.00159976235151679
282.157652290999 0.0248646156462024
285.171383896917 0.0112045214186071
295.165619239192 0.0615887614176864
296.150332202797 0.00948657525673562
304.142303466797 0.873348617007892
306.133056640625 0.377481920739468
313.176657442908 0.466692436357045
323.198491484 0.00612017248758057
337.213674727774 0.252222120819247
338.197309764301 0.0117046021578653
359.194854736328 0.273861265053249
END IONS

BEGIN IONS
TITLE=msLevel 2; retentionTime ; scanNum 
msLevel=2
SCANS=42
centroided=TRUE
PEPMASS=465.0726
CHARGE=1+
RT=4.94
IONMODE=Positive
ADDUCT=M+K
ID=WOSKHXYHFSIKNG
SMILES=COc1cc2c(cc1C(=N)O)c(ccn2)Oc1ccc(c(c1)Cl)NC(=NC1CC1)O
FORMULA=C21H19ClN4O4
FILENAME=2600129002_190419_MAS011_B9.mzXML
DrugBank.ID=DB09078
INCHIKEY=WOSKHXYHFSIKNG-UHFFFAOYSA-N
CPD=lenvatinib
Status=approved; investigational
CAS=N/A
NAME=lenvatinib
MSLEVEL=2
TIC=1554519.234375
PEPMASS_DEV=8.38379138289488e-05
SCAN_NUMBER=452
PARAM_SUBMIT_USER=
PARAM_SAMPLE_TYPE=
PARAM_COMMENTS=
PARAM_ALGORITHM=RMassBank
PARAM_CREATION_TIME=2021-06-26 22:21:44
DB=Inhouse
CLASS=Drug
NUM_PEAKS=2
PARAM_CONSENSUS=consensus
Superclass=Organoheterocyclic compounds
Class=Quinolines and derivatives
Subclass=Quinoline carboxamides
128.021484375 1
166.972351074219 0.00655212210312429
184.098017181484 0.000648013881570401
209.067687694296 0.00056774504109808
211.107411484881 0.00116069068625811
212.091156709966 0.00532968950425388
224.089949387606 0.0018173224341052
265.073478919263 0.0019216855330247
325.038729264676 0.00132578761628668
327.053629976611 0.598033371934436
330.101963773313 0.00218335725260439
339.052498870693 0.00923054168133871
339.087797376884 0.00774066795520273
341.046957448013 0.000545392551594284
345.060168964512 0.00672795314318305
345.080222843737 0.0318779724217033
346.074148316901 0.0516555339286963
350.042884999963 0.00105452535877106
351.053382717783 0.00166112990812601
352.046266953834 0.00287080576027153
353.030664545083 0.315426087358657
355.028075584467 0.014585727652621
355.04712049754 0.0264340223198763
360.05471375936 0.000451759745080904
365.06823621703 0.198084989782303
366.061584472656 0.120157922345844
366.073023882726 0.0333902087332141
366.100582046928 0.00301155514880023
368.05227643991 0.00050221301244779
368.082608868698 0.00113494351794553
370.058898047712 0.5
377.056290324382 0.0033474905537914
378.06373633255 0.00197346209163037
379.059509366114 0.00071099192460537
382.095801381592 0.000973111176419048
391.140132301391 0.000774450870195887
392.040740966797 0.5
392.080339723312 0.101392024976392
393.064720578974 0.0458623943158679
393.085545354403 0.0117425922855457
410.090637316818 0.423088018795204
434.075439453125 0.0196180998796936
END IONS

BEGIN IONS
TITLE=msLevel 2; retentionTime ; scanNum 
msLevel=2
SCANS=45
centroided=TRUE
PEPMASS=463.1671
CHARGE=1+
RT=6.18
IONMODE=Positive
ADDUCT=M+Na
ID=GZKLJWGUPQBVJQ
SMILES=c1cc2c(cc1Cl)c(cn2c1ccc(cc1)F)C1CCN(CC1)CCN1CCN=C1O
FORMULA=C24H26ClFN4O
FILENAME=2600129002_190419_MAS011_C11.mzXML
DrugBank.ID=DB06144
INCHIKEY=GZKLJWGUPQBVJQ-UHFFFAOYSA-N
CPD=sertindole
Status=approved; investigational; withdrawn
CAS=N/A
NAME=sertindole
MSLEVEL=2
TIC=1353893.20727539
PEPMASS_DEV=-0.000724164741392662
SCAN_NUMBER=584
PARAM_SUBMIT_USER=
PARAM_SAMPLE_TYPE=
PARAM_COMMENTS=
PARAM_ALGORITHM=RMassBank
PARAM_CREATION_TIME=2021-06-26 22:23:21
DB=Inhouse
CLASS=Drug
NUM_PEAKS=3
PARAM_CONSENSUS=consensus
Superclass=Organoheterocyclic compounds
Class=Pyrroles
Subclass=Substituted pyrroles
84.0807530526577 0.00204504188954856
87.9712753295898 0.425639198202252
113.070883156531 1
114.0680181361 0.00232575123402547
115.075000568059 0.00038318050171189
142.097496980243 0.00157556368201301
168.112963778348 0.000490010385795953
194.128504229953 0.00120229801807585
196.14400060944 0.0330626600389935
329.120111697747 0.00870066067012321
330.123403300071 0.0005696553455037
355.135777886078 0.0367089492927295
356.139527250114 0.00283547149895044
357.1290216121 0.00766802983566767
359.132080078125 1
439.1695437401 0.000405926512665514
END IONS

BEGIN IONS
TITLE=msLevel 2; retentionTime ; scanNum 
msLevel=2
SCANS=51
centroided=TRUE
PEPMASS=371.0906
CHARGE=1+
RT=4.93
IONMODE=Positive
ADDUCT=M+Na
ID=PDOQBOJDRPLBQU
SMILES=Cc1cc(=Nc2c(cnc(N[C@@H](C)c3ncc(cn3)F)n2)Cl)[nH][nH]1
FORMULA=C14H14ClFN8
FILENAME=2600129002_190419_MAS011_C4.mzXML
DrugBank.ID=DB12588
INCHIKEY=PDOQBOJDRPLBQU-QMMMGPOBSA-N
CPD=AZD1480
Status=investigational
CAS=N/A
NAME=AZD1480
MSLEVEL=2
TIC=7699225.04541016
PEPMASS_DEV=-0.00095100555271093
SCAN_NUMBER=426
PARAM_SUBMIT_USER=
PARAM_SAMPLE_TYPE=
PARAM_COMMENTS=
PARAM_ALGORITHM=RMassBank
PARAM_CREATION_TIME=2021-06-26 22:26:30
DB=Inhouse
CLASS=Drug
NUM_PEAKS=5
PARAM_CONSENSUS=consensus
Superclass=Organoheterocyclic compounds
Class=Diazines
Subclass=Pyrimidines and pyrimidine derivatives
98.0711613751615 0.000885448104433918
99.035423296675 0.000269221881896168
123.066217195574 0.0265578014011546
125.05064136673 0.0600052929476363
126.051254586366 0.00325781430480245
129.054656982422 1
140.061634684349 0.00113454350109532
142.077245343374 0.0012258684524396
144.019278866667 0.000309489879989881
145.027519666977 0.00110483755624687
146.016213981011 0.000203108060605081
147.024958217005 0.0002558754921861
147.066092567614 0.263923414767461
148.061518728039 0.000924612696263842
148.07416826424 0.000527001402802922
157.027013418625 0.00179213962353776
162.07671626226 0.000887468195772836
167.072531966244 0.00115128113029721
180.03156571775 0.000680929813710676
183.042856073877 0.0231567540940633
184.038324262682 0.00167215812544317
185.039975201989 0.00269115491726225
188.080424873694 0.00158888568172155
189.088222023513 0.0318327643013617
198.053640518904 0.00206587809253508
205.088895703073 0.000353074926076503
208.03931984955 0.00717742753086087
210.054319704555 0.00314004414949785
212.051051541657 0.000286629634951228
215.105303939027 0.0010967803831301
218.083915417064 0.000242615042230073
225.066045447098 0.5
226.070389914746 0.0371065176891217
227.063063241571 0.136999661700018
245.094239591084 0.000319285017282916
246.039199829102 0.0936789438977453
247.110895588352 0.00118234250261185
252.086028148163 0.000660984826339631
253.07891575053 0.00175947602587946
269.071314497973 0.000884787700360172
285.126073998951 0.00035821623298296
299.115368592672 0.000421623814123893
302.091795614934 0.000372834206496741
306.067245731759 0.000540286363507053
312.077082183154 0.000581040435091616
313.132680092242 0.00294909291283347
322.096879246452 0.000660961769332449
329.103639117083 0.00379591146971263
332.081250414729 0.00226444720209436
END IONS

BEGIN IONS
TITLE=msLevel 2; retentionTime ; scanNum 
msLevel=2
SCANS=54
centroided=TRUE
PEPMASS=544.3007
CHARGE=1+
RT=5.24
IONMODE=Positive
ADDUCT=M+Na
ID=XQVVPGYIWAGRNI
SMILES=CC[C@@H]1C(=O)N(C)c2cnc(Nc3ccc(cc3OC)C(=NC3CCN(C)CC3)O)nc2N1C1CCCC1
FORMULA=C28H39N7O3
FILENAME=2600129002_190419_MAS011_C5.mzXML
DrugBank.ID=Unknown
INCHIKEY=XQVVPGYIWAGRNI-JOCHJYFZSA-N
CPD=BI-2536
Status=experimental
CAS=N/A
NAME=BI-2536
MSLEVEL=2
TIC=1106831.13745117
PEPMASS_DEV=-0.000636613772361332
SCAN_NUMBER=467
PARAM_SUBMIT_USER=
PARAM_SAMPLE_TYPE=
PARAM_COMMENTS=
PARAM_ALGORITHM=RMassBank
PARAM_CREATION_TIME=2021-06-26 22:27:20
DB=Inhouse
CLASS=Drug
NUM_PEAKS=5
PARAM_CONSENSUS=consensus
Superclass=Organoheterocyclic compounds
Class=Pteridines and derivatives
Subclass=
96.0807757401 0.000495618550143171
98.0964258041 0.00190781854758937
99.1003038962581 0.000150332593355908
113.1073248361 0.000225359777678333
122.101608276367 0.170402329675473
158.150436401367 0.340404772489388
178.265095104333 0.000125948622316359
297.115030239886 0.000141848643483216
310.097131602247 0.000298704390296602
340.14348640137 0.00071811322453737
341.1410302681 0.000279281590475294
380.2081014921 0.00124855114517079
382.225285157372 0.000988657635487339
393.184409866648 0.000185558095932573
408.204761693495 1
410.211019377293 0.0449988317516231
411.2139151441 0.000999314288120812
507.2958984375 0.000112285600453707
512.276000976562 0.191654280689003
522.319776632911 0.182495285697353
543.291259765625 0.25
END IONS

BEGIN IONS
TITLE=msLevel 2; retentionTime ; scanNum 
msLevel=2
SCANS=57
centroided=TRUE
PEPMASS=250.1339
CHARGE=1+
RT=4.82
IONMODE=Positive
ADDUCT=M+H
ID=WHWZLSFABNNENI
SMILES=c1ccc2c(c1)Cc1ccccc1N1C2CNC1=N
FORMULA=C16H15N3
FILENAME=2600129002_190419_MAS011_D10.mzXML
DrugBank.ID=DB00751
INCHIKEY=WHWZLSFABNNENI-UHFFFAOYSA-N
CPD=epinastine
Status=approved; investigational
CAS=N/A
NAME=epinastine
MSLEVEL=2
TIC=441614434.1875
PEPMASS_DEV=0.00173903159950744
SCAN_NUMBER=412
PARAM_SUBMIT_USER=
PARAM_SAMPLE_TYPE=
PARAM_COMMENTS=
PARAM_ALGORITHM=RMassBank
PARAM_CREATION_TIME=2021-06-26 22:28:29
DB=Inhouse
CLASS=Drug
NUM_PEAKS=19
PARAM_CONSENSUS=consensus
Superclass=Organoheterocyclic compounds
Class=Benzazepines
Subclass=Dibenzazepines
91.0542229991711 0.110670942416979
106.065140118527 0.0803984432780293
115.054193113801 0.0496011671437105
130.065295319369 0.0713848736315755
131.05999512727 0.169941355537882
132.080853981787 0.0607225053160469
145.076054164606 0.0503024112619497
146.071249704194 0.289517976391427
178.077252229187 0.0376917746757336
179.086097795503 0.0449458401725095
193.08846651009 0.105210113321647
194.09657775047 0.035201801538825
206.096641865578 0.146441480119732
208.111979547874 1
216.081073081991 0.0650744792520264
217.088345998868 0.0515607802401123
232.098759465592 0.0492167884598106
233.107865736921 0.350567632553841
249.125781113034 0.0493116319827191
END IONS

BEGIN IONS
TITLE=msLevel 2; retentionTime ; scanNum 
msLevel=2
SCANS=62
centroided=TRUE
PEPMASS=302.037
CHARGE=1+
RT=4.99
IONMODE=Positive
ADDUCT=M+Na
ID=SAYGKHKXGCPTLX
SMILES=c1cc(ccc1c1cc(C(=N)O)c(NC(=N)O)s1)F
FORMULA=C12H10FN3O2S
FILENAME=2600129002_190419_MAS011_D3.mzXML
DrugBank.ID=Unknown
INCHIKEY=SAYGKHKXGCPTLX-UHFFFAOYSA-N
CPD=TPCA-1
Status=experimental
CAS=N/A
NAME=TPCA-1
MSLEVEL=2
TIC=5602439.77319336
PEPMASS_DEV=3.07601911714286e-05
SCAN_NUMBER=426
PARAM_SUBMIT_USER=
PARAM_SAMPLE_TYPE=
PARAM_COMMENTS=
PARAM_ALGORITHM=RMassBank
PARAM_CREATION_TIME=2021-06-26 22:30:16
DB=Inhouse
CLASS=Drug
NUM_PEAKS=16
PARAM_CONSENSUS=consensus
Superclass=Organoheterocyclic compounds
Class=Thiophenes
Subclass=Thiophene carboxylic acids and derivatives
95.9906005859375 0.000602748183736179
113.059631347656 0.00289274984912893
123.032638549805 0.00102414419349401
124.055671691895 0.00940304899215783
148.055877685547 0.00107530571992219
192.027648925781 0.0429816998646523
218.007125854492 0.00285120297674054
219.015808105469 0.0182131663201661
220.022598266602 0.346728711104482
221.025863647461 0.034183915333925
235.033706665039 0.00160113744041826
236.041107177734 0.0608368476496482
237.024948120117 0.0589846922815675
238.031875610352 0.000777152550276999
245.017700195312 0.0176637384259988
246.001647949219 0.418412343603682
262.020812988281 0.0273579878373569
263.028228759766 1
285.010162353516 0.084550877658027
301.028686523438 0.00141037826352065
END IONS

BEGIN IONS
TITLE=msLevel 2; retentionTime ; scanNum 
msLevel=2
SCANS=65
centroided=TRUE
PEPMASS=484.0868
CHARGE=1+
RT=5.74
IONMODE=Positive
ADDUCT=M+Na
ID=LCVIRAZGMYMNNT
SMILES=c1cc(C[C@@]2(CC[C@@H](CC2)Oc2cccc(c2F)Cl)C(=O)O)nc(c1)Nc1nccs1
FORMULA=C22H21ClFN3O3S
FILENAME=2600129002_190419_MAS011_D5.mzXML
DrugBank.ID=DB12556
INCHIKEY=LCVIRAZGMYMNNT-VVONHTQRSA-N
CPD=MK-5108
Status=investigational
CAS=N/A
NAME=MK-5108
MSLEVEL=2
TIC=4048322.66186523
PEPMASS_DEV=-4.93904182754547e-05
SCAN_NUMBER=510
PARAM_SUBMIT_USER=
PARAM_SAMPLE_TYPE=
PARAM_COMMENTS=
PARAM_ALGORITHM=RMassBank
PARAM_CREATION_TIME=2021-06-26 22:34:55
DB=Inhouse
CLASS=Drug
NUM_PEAKS=84
PARAM_CONSENSUS=consensus
Superclass=Benzenoids
Class=Phenol ethers
Subclass=
170.096788169689 0.00135652204991254
191.051458052112 0.0230199198637725
192.059469830523 0.0203393356068368
193.062949744472 0.000831320705537804
213.033065795898 0.0904923417137827
220.969789628016 0.000981039857991485
228.059456702074 0.000773887959048954
242.074224660907 0.00159375569970502
244.051422119141 0.0353571302992202
263.932459815886 0.000187660451817078
268.09088033515 0.00308909150433438
270.106079916616 0.494018184962066
271.109926041833 0.0401512842019363
272.100405455711 0.00782403426664033
294.103424072266 0.125142759984816
298.101100422121 0.0999600590621867
299.10589259312 0.0144597001878968
300.097287535171 0.00267725136772122
316.111614802496 0.0693728646271625
317.114514881935 0.00254096904171327
318.108808996538 0.00268716605198831
320.082427978516 0.304828047662892
321.088348388672 0.0905436976444212
338.09326171875 1
339.096374511719 0.0554904709239151
384.077728271484 0.172109649523149
386.072418212891 0.0470540840475145
416.099043428315 0.233526479967422
417.1034176641 0.0540646750300233
418.0986666321 0.0723288450267043
439.086334228516 0.00563778798090781
443.0865051681 0.000312973119403864
444.0943302001 0.485878347470263
466.075958251953 0.485878347470263
483.0791015625 0.0156525188313948
END IONS

BEGIN IONS
TITLE=msLevel 2; retentionTime ; scanNum 
msLevel=2
SCANS=66
centroided=TRUE
PEPMASS=387.034
CHARGE=1+
RT=6.72
IONMODE=Positive
ADDUCT=M+H
ID=IKMPWMZBZSAONZ
SMILES=c1ccc(c(c1)C1=NCC(=S)N(CC(F)(F)F)c2ccc(cc12)Cl)F
FORMULA=C17H11ClF4N2S
FILENAME=2600129002_190419_MAS011_D6.mzXML
DrugBank.ID=DB01589
INCHIKEY=IKMPWMZBZSAONZ-UHFFFAOYSA-N
CPD=Quazepam
Status=approved; illicit
CAS=N/A
NAME=Quazepam
MSLEVEL=2
TIC=219463501.324219
PEPMASS_DEV=0.00206852796548516
SCAN_NUMBER=600
PARAM_SUBMIT_USER=
PARAM_SAMPLE_TYPE=
PARAM_COMMENTS=
PARAM_ALGORITHM=RMassBank
PARAM_CREATION_TIME=2021-06-26 22:36:08
DB=Inhouse
CLASS=Drug
NUM_PEAKS=68
PARAM_CONSENSUS=consensus
Superclass=Organoheterocyclic compounds
Class=Benzodiazepines
Subclass=1,4-benzodiazepines
110.021180559641 0.0032023378348169
112.036568846783 0.0124160262427226
122.040080088148 0.00288069204641069
141.993343976639 0.00552857013407767
153.993072810686 0.0164759736286601
182.990447863179 0.0038591974744606
204.043661865818 0.00330866723917244
211.079146364064 0.0233177746894338
231.032762494745 0.00501500818995906
233.009623530384 0.00289273881692692
233.009623530384 0.00289273881692692
233.021128709549 0.016416207164039
234.025070131532 0.00260119848592465
234.048675590025 0.00812739961664854
234.048675590025 0.00812739961664854
235.01906297211 0.0045533808174376
235.01906297211 0.0045533808174376
236.045679457863 0.00354989541440902
236.045679457863 0.00354989541440902
244.032392182452 0.00218201659952091
245.040297441577 0.00607241881800157
246.048264610402 0.0406300240136091
247.038272214081 0.00247721044917799
247.051333765906 0.0045324443032587
248.045232462971 0.0118632663572191
251.009076870391 0.0284979822020717
251.009076870391 0.0284979822020717
252.013169727772 0.00512393153583169
253.006399401584 0.00893898538902716
259.04405018355 0.00918162066099808
259.04405018355 0.00918162066099808
261.04205602912 0.00200610028056656
263.985470325978 0.00226763146814819
264.004513102778 0.00519895827900616
264.004513102778 0.00519895827900616
266.001746473731 0.0211332798238329
267.998674895647 0.00763751093436251
270.007108650658 0.00193692365613733
270.007108650658 0.00193692365613733
276.00470336105 0.0370527179601869
276.00470336105 0.0370527179601869
277.00780754573 0.00699432294749372
278.001665234999 0.0089517604955042
278.020524943808 0.0192089634337996
278.020524943808 0.0192089634337996
278.059190398914 0.00561515406196334
278.059190398914 0.00561515406196334
279.023934844468 0.00358236395574139
280.016877612712 0.00461728101409511
285.058898072897 0.00434378827105803
288.004380882457 0.00600060286979424
290.021098812346 0.00193232870220909
293.021611882614 0.00616851230271266
303.016350821532 0.0110001144974714
304.02310755261 0.420558028489768
306.019983309662 0.124125053685242
313.027748751205 0.124399359855979
327.043192869638 0.0203510277637781
333.039037703275 0.00246820281029375
341.046429042279 0.0337874208707004
342.054177524921 0.019888841005561
343.061622076208 0.00695554972487774
351.05778916132 0.00392432743173466
352.06474198501 0.0059842884402431
353.046567705348 0.00917165037556623
354.053813411385 1
360.023173450835 0.00426707399837325
386.026286836661 0.00245007826979901
END IONS

BEGIN IONS
TITLE=msLevel 2; retentionTime ; scanNum 
msLevel=2
SCANS=70
centroided=TRUE
PEPMASS=451.1201
CHARGE=1+
RT=5.77
IONMODE=Positive
ADDUCT=M+K
ID=SCGCBAAYLFTIJU
SMILES=C[C@@H]1COCCN1c1cc(C2(CC2)S(=O)(=O)C)nc(c2cccc3c2cc[nH]3)n1
FORMULA=C21H24N4O3S
FILENAME=2600129002_190419_MAS011_D8.mzXML
DrugBank.ID=Unknown
INCHIKEY=SCGCBAAYLFTIJU-CQSZACIVSA-N
CPD=AZ20
Status=experimental
CAS=N/A
NAME=AZ20
MSLEVEL=2
TIC=1151172.14208984
PEPMASS_DEV=0.00084365716148775
SCAN_NUMBER=508
PARAM_SUBMIT_USER=
PARAM_SAMPLE_TYPE=
PARAM_COMMENTS=
PARAM_ALGORITHM=RMassBank
PARAM_CREATION_TIME=2021-06-26 22:37:38
DB=Inhouse
CLASS=Drug
NUM_PEAKS=3
PARAM_CONSENSUS=consensus
Superclass=Organoheterocyclic compounds
Class=Indoles and derivatives
Subclass=Indoles
82.0757522583008 0.557084530440675
100.0756903601 0.0073015660676542
234.105034148414 0.00502613789509247
235.110376855406 0.0232901108338958
249.126031561521 0.0212833885240442
250.121822246314 0.0122398845601934
262.134802419685 0.0336795327537642
263.129189292908 0.0489878045980068
263.142342396958 0.0276157453637623
264.1342678561 0.00409183567685959
265.121747227062 0.0130663859854153
275.131473032475 0.0231002262103977
276.135961245467 0.00621302263938234
276.150823337514 0.0183336007346621
277.143493305028 0.0203257647781027
277.158843692444 0.0144386565545471
289.145421062732 0.142085370033803
290.1499179201 0.00668572988936544
291.125682074713 0.00395763868649973
294.148579241886 0.00932833542733005
303.160271999079 0.13470730401195
304.168818118227 0.0685470019337387
305.140285335934 0.0146070739614082
305.1733930161 0.00446924911107183
315.123168945312 0.305039344511418
319.157666478297 0.0355475371994681
333.171666672381 0.0392040892010736
334.112152099609 1
334.1788127441 0.557084530440675
336.1832294281 0.0114622880423554
349.165250008662 0.00488942264161975
355.123120083363 0.011291858968355
356.161041259766 0.557084530440675
END IONS

BEGIN IONS
TITLE=msLevel 2; retentionTime ; scanNum 
msLevel=2
SCANS=79
centroided=TRUE
PEPMASS=538.1184
CHARGE=1+
RT=5.61
IONMODE=Positive
ADDUCT=M+K
ID=JCKGSPAAPQRPBW
SMILES=C1CCN(C1)C(=O)[C@@H](Cc1cccc(c1)C(F)(F)F)NS(=O)(=O)c1cc2CCNCc2c(c1)F
FORMULA=C23H25F4N3O3S
FILENAME=2600129002_190419_MAS011_E11.mzXML
DrugBank.ID=Unknown
INCHIKEY=JCKGSPAAPQRPBW-OAQYLSRUSA-N
CPD=(R)-PFI 2 hydrochloride
Status=Unknown
CAS=N/A
NAME=(R)-PFI 2 hydrochloride
MSLEVEL=2
TIC=1387716.64160156
PEPMASS_DEV=0.000865405649554812
SCAN_NUMBER=498
PARAM_SUBMIT_USER=
PARAM_SAMPLE_TYPE=
PARAM_COMMENTS=
PARAM_ALGORITHM=RMassBank
PARAM_CREATION_TIME=2021-06-26 22:55:27
DB=Inhouse
CLASS=Drug
NUM_PEAKS=37
PARAM_CONSENSUS=consensus
Superclass=Organic acids and derivatives
Class=Carboxylic acids and derivatives
Subclass=Amino acids, peptides, and analogues
98.0600402961 0.0626687411360613
99.0634707186797 0.0063888961069107
105.009468078613 0.00323463996139878
117.1640625 0.00403392560459099
123.060605056446 0.00323197986041501
127.086447514042 0.000799473777971692
135.047771484726 0.00261934298408821
136.039344399246 0.00022665524371076
148.05570982798 0.00479895352394879
149.045013427734 0.129346620164417
150.071419384211 0.0133751798740356
152.049026489258 0.00589896439123653
152.086958581289 0.00384672807614664
166.06622903524 0.0414162577050348
167.013442993164 0.0126146635047317
167.069608616026 0.00710526357584956
168.081838292342 0.0136257701973392
178.077378567902 0.024530126435418
182.043705908754 0.00325137349970396
187.060131710309 0.00330182327526212
188.067767156123 0.00303593706663556
196.022293504725 0.00164395198803529
198.038236210834 0.0237370287319784
199.041405405714 0.00984236394402357
200.034285672191 0.00203213636137624
212.017512557116 0.00243163716404442
214.033090683547 0.287301287387465
215.036440778869 0.0282038835312337
216.029219445976 0.0042839681225961
225.060050603217 0.000774484121313607
232.043675187128 0.00157668961349794
242.11505268772 0.0107693266792474
246.156436764101 0.000613274200131732
247.123931753923 0.00305509813984873
250.103350761631 0.00426915601578678
269.126751157214 0.00901588380705312
269.144622326842 0.0175756170661281
269.175415039062 0.0319656106850065
270.110042547058 0.0297490512069792
271.113258441503 0.00433146458068977
276.160675048828 0.0858232781762221
285.106933170153 0.0331736839017525
285.121816402255 0.00356901166665477
286.109885158673 0.00366743611383252
287.136345072257 0.00305146284469512
299.061187744141 1
300.062103271484 0.482814885256004
301.0595703125 0.601343188092636
313.101960642004 0.0369988647060263
313.191069691143 0.132087914708423
314.104892484626 0.00442686706001159
315.09705159902 0.00151227642283289
315.184433224197 0.00316963534843711
341.153633194279 0.00519558320932228
349.08445983697 0.00486728025427819
349.157518235756 0.015516356502531
350.16026592698 0.00365615946479027
358.088507505373 0.00108856103137355
358.157670801053 0.00941476239093645
361.083417505353 0.00373810053297339
361.150664849723 0.0147961292992577
362.153211935129 0.002774840275068
381.086393308362 0.0237728396907205
381.144999245926 0.0554691876963883
382.091336182776 0.000915376983807968
382.147466156931 0.0055813653819663
383.139955982015 0.00191128413872142
385.100009640065 0.0017504475180929
385.153988816063 0.0149536090187606
386.156561645207 0.00263243671730746
401.094611880703 0.0425413336420393
401.137978683206 0.666666666666667
402.097757346831 0.00760822549104504
402.140639895654 0.0462455094088998
403.092724084445 0.00377570232271909
403.133812757775 0.026409912056951
423.074493408203 0.0370408441741553
434.1696734141 0.00241358172793354
435.171714273031 0.000537337555398922
440.158593137762 0.00181731951922345
454.158398963839 0.0569243640492533
455.1610747721 0.0153715507037321
456.156807487913 0.00314775522915998
460.149144423738 0.0393645640438112
461.152590619096 0.00700801480362055
462.147744685164 0.00296598312875889
469.031646728516 0.0285770344941469
480.156248297436 0.179705413580849
482.1519873081 0.01152818693859
483.158517884044 0.00221812113937135
500.1625519921 0.111111111111111
END IONS

BEGIN IONS
TITLE=msLevel 2; retentionTime ; scanNum 
msLevel=2
SCANS=82
centroided=TRUE
PEPMASS=432.0925
CHARGE=1+
RT=5.66
IONMODE=Positive
ADDUCT=M+K
ID=HBPXWEPKNBHKAX
SMILES=Cc1c(c2csc(C(C)(C)C)n2)sc(n1)N=C(N1CCC[C@H]1C(=N)O)O
FORMULA=C17H23N5O2S2
FILENAME=2600129002_190419_MAS011_E12.mzXML
DrugBank.ID=Unknown
INCHIKEY=HBPXWEPKNBHKAX-NSHDSACASA-N
CPD=A66
Status=experimental
CAS=N/A
NAME=A66
MSLEVEL=2
TIC=1558306.72167969
PEPMASS_DEV=0.00159130456608679
SCAN_NUMBER=502
PARAM_SUBMIT_USER=
PARAM_SAMPLE_TYPE=
PARAM_COMMENTS=
PARAM_ALGORITHM=RMassBank
PARAM_CREATION_TIME=2021-06-26 22:56:31
DB=Inhouse
CLASS=Drug
NUM_PEAKS=19
PARAM_CONSENSUS=consensus
Superclass=Organic acids and derivatives
Class=Carboxylic acids and derivatives
Subclass=Amino acids, peptides, and analogues
92.0472259521484 0.000348548193190538
93.1025085449219 0.000172503596991981
115.0865893921 0.975840380799182
116.0899233001 0.0524055416050904
117.0926916401 0.00144161597349279
135.053009033203 0.000759059461266249
136.135818481445 0.000337930510646795
137.068458557129 1
138.067693074544 0.0654051807579946
139.072143554688 0.00144496725139449
153.042404174805 0.975840380799182
154.040992736816 0.063153088642707
155.040588378906 0.0539811486207275
178.094573974609 0.000636796603404275
208.099472045898 0.0091946359861328
211.108444213867 0.00628304830575876
222.03059387207 0.0607173758422025
233.071670532227 0.0289185655914509
264.025113725865 0.000493653634243136
265.034580025895 0.00044565374750167
275.052886962891 0.00145722166691399
279.047547026672 0.000167967381726757
280.055946265158 0.410470258832652
302.039154052734 0.00740852785913172
303.042846679688 0.000359659050310842
356.077331542969 0.000299897628265797
377.1100443321 0.00526763455244644
399.092132568359 0.00260576074438216
415.110046386719 0.00166079257846507
END IONS

BEGIN IONS
TITLE=msLevel 2; retentionTime ; scanNum 
msLevel=2
SCANS=85
centroided=TRUE
PEPMASS=500.0862
CHARGE=1+
RT=5.65
IONMODE=Positive
ADDUCT=M+Na
ID=JSKUWFIZUALZLX
SMILES=COc1cc2c(cc1OC)n(cn2)c1cc(c(C(=O)N)s1)OCc1ccccc1C(F)(F)F
FORMULA=C22H18F3N3O4S
FILENAME=2600129002_190419_MAS011_E2.mzXML
DrugBank.ID=Unknown
INCHIKEY=JSKUWFIZUALZLX-UHFFFAOYSA-N
CPD=GW-843682X
Status=experimental
CAS=N/A
NAME=GW-843682X
MSLEVEL=2
TIC=5327648.9909668
PEPMASS_DEV=8.85662124852614e-05
SCAN_NUMBER=502
PARAM_SUBMIT_USER=
PARAM_SAMPLE_TYPE=
PARAM_COMMENTS=
PARAM_ALGORITHM=RMassBank
PARAM_CREATION_TIME=2021-06-26 22:59:25
DB=Inhouse
CLASS=Drug
NUM_PEAKS=41
PARAM_CONSENSUS=consensus
Superclass=Benzenoids
Class=Benzene and substituted derivatives
Subclass=Trifluoromethylbenzenes
117.090858459473 0.00421901801588358
175.132827758789 0.00309164100350417
179.08219909668 0.00013274293429492
203.082504272461 0.000146334156809299
263.049255371094 0.000534617561886685
276.05603366428 0.0108555377205415
277.060934884208 0.000938559486658918
291.067459106445 0.00180712614282438
302.060317993164 0.00440629573976277
303.044738769531 0.00118716601718431
303.064666748047 0.000548582894409997
319.061737060547 0.588728808153661
320.065063476562 0.195931140971641
321.059557233538 0.0399124652307137
322.060514009916 0.00305685145403777
329.048980712891 0.000457006236064586
341.043640136719 1
342.046783447266 0.164672780423245
343.042205810547 0.0310531254720557
385.122589111328 0.00206787577206829
435.098342895508 0.016693623934808
437.100250244141 0.000404030105201377
457.080993652344 0.000904248888869888
478.103485107422 0.0909090909090909
END IONS

BEGIN IONS
TITLE=msLevel 2; retentionTime ; scanNum 
msLevel=2
SCANS=88
centroided=TRUE
PEPMASS=292.1114
CHARGE=1+
RT=3.93
IONMODE=Positive
ADDUCT=M+H
ID=NGOGFTYYXHNFQH
SMILES=c1cc2cnccc2c(c1)S(=O)(=O)N1CCCNCC1
FORMULA=C14H17N3O2S
FILENAME=2600129002_190419_MAS011_E4.mzXML
DrugBank.ID=DB08162
INCHIKEY=NGOGFTYYXHNFQH-UHFFFAOYSA-N
CPD=fasudil
Status=investigational
CAS=N/A
NAME=fasudil
MSLEVEL=2
TIC=96967199.0380859
PEPMASS_DEV=0.00253530220263885
SCAN_NUMBER=338
PARAM_SUBMIT_USER=
PARAM_SAMPLE_TYPE=
PARAM_COMMENTS=
PARAM_ALGORITHM=RMassBank
PARAM_CREATION_TIME=2021-06-26 23:02:01
DB=Inhouse
CLASS=Drug
NUM_PEAKS=44
PARAM_CONSENSUS=consensus
Superclass=Organoheterocyclic compounds
Class=Isoquinolines and derivatives
Subclass=
82.0651439660674 0.0223849454546296
83.0727672688345 0.00150693368114268
84.0681144966589 0.00223781355823968
84.0808098218517 0.00649374278527547
85.0760194080378 0.0682209642444935
97.0760557457972 0.0166399193885845
98.0838560199018 0.0339628297872749
99.0916417742374 1
100.088632767956 0.00607178664009918
100.099184274219 0.00642461418750081
101.098266670181 0.000994292617963094
101.107025267973 0.00112772257094847
104.04944528127 0.00111936626463605
105.057427423976 0.0019616131119423
129.057938926306 0.0100063496837533
130.06576187774 0.157691612687817
131.068958677707 0.0138831550738372
132.081351654972 0.0308575771882706
133.084515832331 0.00248492531247718
142.06572470314 0.00193672616155427
144.044597359552 0.00844780142981492
145.052617473713 0.00635345313838224
146.060240624003 0.0791092251418616
156.055575511809 0.0155263107692305
156.08122483853 0.000896093243456888
160.021610521862 0.00615715164400935
163.053428857896 0.014581816024459
163.053428857896 0.014581816024459
171.091713268591 0.0023915432844488
176.016589855541 0.000873957405012206
178.031798143241 0.002082470940614
185.10729235028 0.00277010731004581
192.011356349377 0.0685570380593263
193.015020256659 0.00506430091841794
194.026967707646 0.164223335286671
195.030519738457 0.015356594939616
206.026133311922 0.00102644756112281
209.037981666453 0.00226522025690229
221.037952355391 0.0248967836851961
235.053469494026 0.1348842708828
237.048059208907 0.00515991758506714
249.069393208227 0.0363185705677153
264.080194619518 0.0759243998205306
275.084840053793 0.00222905483952845
END IONS

BEGIN IONS
TITLE=msLevel 2; retentionTime ; scanNum 
msLevel=2
SCANS=95
centroided=TRUE
PEPMASS=471.1671
CHARGE=1+
RT=5.24
IONMODE=Positive
ADDUCT=M+Na
ID=GCYIGMXOIWJGBU
SMILES=COc1cc(ccc1Nc1ncc(c(c2c[nH]c3ccccc23)n1)Cl)N1CCC(CC1)N
FORMULA=C24H25ClN6O
FILENAME=2600129002_190419_MAS011_E8.mzXML
DrugBank.ID=Unknown
INCHIKEY=GCYIGMXOIWJGBU-UHFFFAOYSA-N
CPD=AZD3463
Status=experimental
CAS=N/A
NAME=AZD3463
MSLEVEL=2
TIC=1914177.67822266
PEPMASS_DEV=-0.000776177439254838
SCAN_NUMBER=452
PARAM_SUBMIT_USER=
PARAM_SAMPLE_TYPE=
PARAM_COMMENTS=
PARAM_ALGORITHM=RMassBank
PARAM_CREATION_TIME=2021-06-26 23:11:32
DB=Inhouse
CLASS=Drug
NUM_PEAKS=9
PARAM_CONSENSUS=consensus
Superclass=Organoheterocyclic compounds
Class=Piperidines
Subclass=Phenylpiperidines
110.14302073339 0.000952375163813875
151.073226928711 0.0353553006815061
158.9638671875 0.041416820457151
172.108440024427 0.000663720500532416
228.110641479492 0.0587505936794431
247.063602642657 0.000652447379255535
346.087883044356 0.00611204545484974
347.091010993984 0.00187566063007564
361.084743499437 0.00195366956154392
372.101418005949 0.0166648488756338
376.095414813195 0.00116003692063638
382.164652251056 0.000870493449672936
383.104744313077 0.00343062201554996
388.096118737907 0.00395151681453335
388.132297085339 0.00374856336863472
392.128221812082 0.0380169069697853
394.167914289258 0.00406197117604499
395.173383345976 0.00211024092040749
399.12397547862 0.0015612844227049
400.132666834734 0.0659175680102324
402.111480712891 0.148700288645799
404.128526804312 0.023552471999626
405.159124061032 0.00376125585830549
414.125097888934 0.00130030684384691
415.132985660975 0.00466750825010521
416.126634428136 0.017518418043302
417.133260636805 0.0251844638926662
417.158199890483 0.0774879584389723
420.158009508044 0.00760270499578485
430.143102536853 0.00479260094454751
433.16578547377 0.334035625236251
439.140502929688 0.0955968823523326
448.177367954684 1
455.135009765625 0.344202755568535
470.157928466797 1
END IONS

BEGIN IONS
TITLE=msLevel 2; retentionTime ; scanNum 
msLevel=2
SCANS=96
centroided=TRUE
PEPMASS=353.1294
CHARGE=1+
RT=6.47
IONMODE=Positive
ADDUCT=M+H
ID=XSCGXQMFQXDFCW
SMILES=CN(C)CCCN1c2ccccc2Sc2ccc(cc12)C(F)(F)F
FORMULA=C18H19F3N2S
FILENAME=2600129002_190419_MAS011_E9.mzXML
DrugBank.ID=DB00508
INCHIKEY=XSCGXQMFQXDFCW-UHFFFAOYSA-N
CPD=triflupromazine
Status=approved; vet_approved
CAS=N/A
NAME=triflupromazine
MSLEVEL=2
TIC=967406838.515625
PEPMASS_DEV=0.00229318421485961
SCAN_NUMBER=577
PARAM_SUBMIT_USER=
PARAM_SAMPLE_TYPE=
PARAM_COMMENTS=
PARAM_ALGORITHM=RMassBank
PARAM_CREATION_TIME=2021-06-26 23:11:56
DB=Inhouse
CLASS=Drug
NUM_PEAKS=15
PARAM_CONSENSUS=consensus
Superclass=Organoheterocyclic compounds
Class=Benzothiazines
Subclass=Phenothiazines
84.0807757401 0.0014836182943234
86.0960476652037 1
88.1028709321 0.000810349175856637
239.076637202856 0.000937284876620471
242.043422459424 0.000353813740773965
248.069319984841 0.00103163886910837
262.049779527172 0.00900803772999767
263.053968036943 0.00125372415691164
267.03440381811 0.000899198330254247
275.091626153754 0.00167389137413553
280.041236859272 0.052563051829207
281.0445168562 0.00718345701604237
308.0715314961 0.0331962596826003
313.1169242161 0.000753973705082395
333.12316826838 0.00307605192554813
END IONS

BEGIN IONS
TITLE=msLevel 2; retentionTime ; scanNum 
msLevel=2
SCANS=97
centroided=TRUE
PEPMASS=409.2207
CHARGE=1+
RT=4.14
IONMODE=Positive
ADDUCT=M+H
ID=HCAQGQIHBFVVIX
SMILES=C/C(=N\NC(=N)N)/c1ccc(cc1)NC(=O)Nc1ccc(cc1)/C(=N/NC(=N)N)/C
FORMULA=C19H24N10O
FILENAME=2600129002_190419_MAS011_F1.mzXML
DrugBank.ID=Unknown
INCHIKEY=HCAQGQIHBFVVIX-LYXAAFRTSA-N
CPD=NSC 109555 ditosylate
Status=Unknown
CAS=N/A
NAME=NSC 109555 ditosylate
MSLEVEL=2
TIC=6501306.4777832
PEPMASS_DEV=0.000966692688561325
SCAN_NUMBER=355
PARAM_SUBMIT_USER=
PARAM_SAMPLE_TYPE=
PARAM_COMMENTS=
PARAM_ALGORITHM=RMassBank
PARAM_CREATION_TIME=2021-06-26 23:12:40
DB=Inhouse
CLASS=Drug
NUM_PEAKS=58
PARAM_CONSENSUS=consensus
Superclass=Benzenoids
Class=Benzene and substituted derivatives
Subclass=N-phenylureas
99.0665226441 1
108.068428480173 0.00619592373464084
133.0760247081 0.118838535512674
134.071157096223 0.0124021008092995
134.079106924874 0.0107366941667609
135.091634335253 0.00949911140798927
141.088490773093 0.0074643795734746
149.094731486604 0.0146940090427069
150.102254069681 0.0104407338549461
159.055226645234 0.507490911630311
161.070943275137 0.0216874171842653
175.097753915388 0.0183994050507152
176.081732280334 0.101703572429933
177.076956377484 0.0198044378610954
192.124336841924 0.11695133592399
193.127678674451 0.0156082267057817
200.080551327771 0.00539145847357265
201.077072172767 0.116018474424937
215.092557718564 0.0202840432288205
216.087140697642 0.00723911111455284
216.087140697642 0.00723911111455284
218.103482555 0.591639395758664
243.098815917969 0.0057710235345868
252.112365722656 0.0301267088823053
252.112365722656 0.0301267088823053
253.118942260742 0.00619943340597296
267.123352050781 0.00861964694825192
267.123352050781 0.00861964694825192
268.118255615234 0.00547851852907863
268.118255615234 0.00547851852907863
268.131896972656 0.0318572890871023
277.108062744141 0.0422472748746799
277.108062744141 0.0422472748746799
279.123260498047 0.00666202685069554
279.123260498047 0.00666202685069554
291.123748779297 0.318840909484192
291.123748779297 0.318840909484192
292.120025634766 0.0733079479519523
293.140075683594 0.0104834599538717
294.134704589844 0.439470685023491
294.134704589844 0.439470685023491
308.150573730469 0.0452609293368749
308.150573730469 0.0452609293368749
309.143737792969 0.341128006576425
311.162719726562 0.0324347861402678
333.145538330078 0.398980029757471
333.145538330078 0.398980029757471
335.161407470703 0.14458242456821
335.161407470703 0.14458242456821
336.156219482422 0.433047598713954
336.156219482422 0.433047598713954
350.172119140625 0.359741020953085
350.172119140625 0.359741020953085
352.188866761904 0.0432046766499918
367.1989337761 0.0607582061667713
375.1676336481 0.068875171958981
392.1941827441 0.436449952523649
394.19841043167 0.0116722460129133
END IONS

BEGIN IONS
TITLE=msLevel 2; retentionTime ; scanNum 
msLevel=2
SCANS=99
centroided=TRUE
PEPMASS=505.1725
CHARGE=1+
RT=6.21
IONMODE=Positive
ADDUCT=M+Na
ID=OZWCXTYQZRVEFW
SMILES=C1COCCN1CCON=CC2=C(N=CN=C2NC3=CC(=C(C=C3)OCC4=CC=CC=C4)Cl)N
FORMULA=C24H27ClN6O3
FILENAME=2600129002_190419_MAS011_F10.mzXML
DrugBank.ID=Unknown
INCHIKEY=OZWCXTYQZRVEFW-UHFFFAOYSA-N
CPD=Pubchem_71433874
Status=Unknown
CAS=N/A
NAME=Pubchem_71433874
MSLEVEL=2
TIC=3942669.72851562
PEPMASS_DEV=-0.000732639316062599
SCAN_NUMBER=561
PARAM_SUBMIT_USER=
PARAM_SAMPLE_TYPE=
PARAM_COMMENTS=
PARAM_ALGORITHM=RMassBank
PARAM_CREATION_TIME=2021-06-26 23:16:59
DB=Inhouse
CLASS=Drug
NUM_PEAKS=141
PARAM_CONSENSUS=consensus
Superclass=Benzenoids
Class=Phenol ethers
Subclass=
84.0807757401 0.00122731031250174
86.060144899118 0.00149178548893732
86.0964258041 0.000373437802848438
88.0759591438028 0.00224379257041915
91.0544185551701 0.16296540391927
92.0577898016489 0.00992781500882146
98.0603434869694 0.00086352123842728
99.068133831247 0.000996557581440182
100.075899252119 0.132438836787278
101.0794926321 0.00140529409368475
106.0656361811 0.000700349448315747
112.076189813436 0.000665694882284514
113.083906142471 0.00131151190036053
114.091790343811 0.379308587477781
115.0951426961 0.00885963000773356
116.095824776993 0.000132381405000726
117.0341796875 0.00580626757070415
128.071301634711 0.000570700218464344
130.086621287625 0.0114149885399492
132.102138344633 0.289102062681432
134.106653038111 0.000405721998553474
136.062019054815 0.00561090045977158
147.066839241419 0.000147250741101391
147.11310298902 0.000432348653327762
153.0698767081 0.000223094669463433
154.083892822266 0.123385502800498
181.065469930567 0.0112383395958779
182.068990857304 0.00102599627865934
198.078705284616 0.000699566013899493
199.062652638953 0.000763455676516762
201.067216231549 0.000337856222952944
211.06339412573 0.000576415570910181
211.087961619505 0.000324995092260975
211.098994102792 0.00289406513440268
213.079287287731 0.00185413903041854
218.047436221691 0.000435057479630461
219.045321185582 0.000645185347070834
221.041641325595 0.000134227379709591
224.095594339564 0.000775458980568219
225.067283082127 0.000308511837724143
225.103615729089 0.000319423253791439
226.073031145338 0.214136255471465
227.0779684081 0.00129716835933488
233.048580074547 0.000440422198362756
234.032637643284 0.000325744874221107
235.058563232422 0.0821349132427334
238.076129447697 0.000123106814282214
246.032407246254 0.000837821237422878
246.054607585535 0.00107211219033996
247.040175483263 0.00779426762277081
248.04983539929 0.0479804963051173
248.066772460938 0.0380882672282421
249.058602127383 0.0475740256549249
260.033668002734 0.00409233298444101
261.042304804265 0.179247200711868
262.050056362812 0.0709891737120821
264.065741800952 0.00273374149438106
266.06177349627 0.000237727251696601
269.019958496094 0.0244383572962246
272.083583286922 0.000644298090899142
274.049704663429 0.00696008268381682
277.072612826468 0.001755717119282
279.052982910635 0.00119214899547755
283.022277832031 0.0760081004137912
284.030303955078 0.23316322818381
285.019775390625 0.0431272914760188
285.037567138672 0.0683063476715343
286.027221679688 0.114063289912902
287.059350009015 0.000355304694093622
288.124954054386 0.0199600432444598
289.108804262696 0.0120729624095917
289.128212719652 0.000853540993677481
290.092837322185 0.00212262186083103
290.112642487901 0.000833116899038196
297.038726806641 0.0719011602136123
298.108153640297 0.000576974633795054
299.054168701172 0.895777450349936
299.093099927066 0.00784600703009583
299.112508334489 0.000137503493780043
300.057739257812 0.0752078644199426
300.096660943136 0.000339979797688963
301.033020019531 0.0169428274026303
301.051177978516 0.41323766753947
303.12360765197 0.00107531303650211
312.062286376953 0.0823638419371393
316.118569555396 0.0393278084989108
318.119781494141 0.0398576888261903
324.099562893658 0.00144636397015481
325.083648184135 0.000600228186352611
327.100674371667 0.0011858436775023
335.069133711562 0.0025765602015536
337.083591401056 0.0169476859294298
338.087800350829 0.00101366697462316
338.100677490234 0.151545953118828
339.0809285481 0.00149915982890392
339.10435380824 0.0881041353320307
340.116882324219 0.0327109977869961
341.094992467177 0.000559857564054717
348.130950927734 0.020654370075654
352.095165334287 1
353.098217804889 0.0905351110443382
354.09597238482 0.316934956777408
356.107302004768 0.000648652073825025
366.110167804806 0.000730033860841959
370.108262377189 0.00241533393587765
374.077697753906 0.614976197247748
376.071105957031 0.262744799773745
377.080902099609 0.0316247131184855
378.140716552734 0.0628157869558293
379.144073486328 0.0463397350083777
384.106781005859 0.645727351585769
385.110137939453 0.0787240852628178
386.103820800781 0.394793515756498
388.094055175781 0.107629954428378
392.135349538647 0.000262365841795295
414.117523193359 0.443016524082179
415.120574951172 0.0866411156394363
416.114837646484 0.544507939128813
447.21430483421 0.00845917729593392
469.195556640625 0.125233071498905
END IONS

BEGIN IONS
TITLE=msLevel 2; retentionTime ; scanNum 
msLevel=2
SCANS=102
centroided=TRUE
PEPMASS=583.2098
CHARGE=1+
RT=6.1
IONMODE=Positive
ADDUCT=M+Na
ID=CVWXJKQAOSCOAB
SMILES=CC(C)(C)c1cc(=NC(=O)Nc2ccc(cc2)c2cn3c4ccc(cc4sc3n2)OCCN2CCOCC2)[nH]o1
FORMULA=C29H32N6O4S
FILENAME=2600129002_190419_MAS011_F11.mzXML
DrugBank.ID=DB12874
INCHIKEY=CVWXJKQAOSCOAB-UHFFFAOYSA-N
CPD=quizartinib
Status=investigational
CAS=N/A
NAME=quizartinib
MSLEVEL=2
TIC=3798700.17504883
PEPMASS_DEV=-5.60849544973025e-05
SCAN_NUMBER=557
PARAM_SUBMIT_USER=
PARAM_SAMPLE_TYPE=
PARAM_COMMENTS=
PARAM_ALGORITHM=RMassBank
PARAM_CREATION_TIME=2021-06-26 23:21:08
DB=Inhouse
CLASS=Drug
NUM_PEAKS=94
PARAM_CONSENSUS=consensus
Superclass=Organoheterocyclic compounds
Class=Azoles
Subclass=Imidazoles
84.0807778846984 0.000185474483746664
85.0396293229504 0.000413088259043335
86.0962801583748 0.000120430372138467
87.0679673930539 0.000594011264139705
88.0757254527284 0.000174492523760269
100.075725123897 0.000212640429666213
107.021690368652 0.0202679024325287
114.091394753514 0.017270235162519
114.978782653809 0.00174247898868279
115.095014737943 0.000623175813334852
141.102449218526 0.00279459420702022
163.084350585938 0.0522383346025643
170.968399047852 0.00206804804798382
178.224807739258 0.0158145814050782
178.237748147349 0.000238840536592896
233.11946105957 0.00017512524594352
281.06281111848 0.000127754805260121
286.110382080078 0.0114586875537982
306.033289609747 0.00020621547580663
307.041039948416 0.00436068249182523
308.048896382391 0.00728547878122369
309.052533979018 0.000774468072321088
325.076151165683 0.000247386344645622
334.064870145525 0.00519607146922416
335.068154558799 0.000627456646986567
372.054321289062 0.000216998492328549
395.152954101563 0.0459183057440108
396.15776977539 0.000775908510816767
417.135284423828 0.538656512463217
418.138244628906 0.126008353966952
419.134979248047 0.0091223388967287
421.132621765137 1
422.135798136393 0.091915749289992
423.134549654447 0.0373946499661023
424.131469726562 0.00237929512236993
438.159393310546 0.0427181597584826
439.162582397461 0.00301261432104718
440.160229492187 0.00151295431150568
441.161102294922 0.000226002756859906
443.114898681641 0.350379896296059
444.1181640625 0.0288026943694706
445.111328125 0.0113414849746973
447.135803222656 0.00216605454902955
448.142044067383 0.000827067960275138
460.141143798828 0.414445094219822
461.149310302734 0.0384961981304942
462.144714355469 0.0255056801533415
462.155120849609 0.000157383231494094
464.139343261719 0.00018755205015237
478.153555733817 0.0192764389447959
503.148427327474 0.000494781098686765
504.15771484375 0.000997982587274073
505.163650512695 0.00135342370856854
527.147766113281 0.0435161782963863
528.149536132812 0.00681688107094905
561.22705078125 0.0769509303518881
END IONS

BEGIN IONS
TITLE=msLevel 2; retentionTime ; scanNum 
msLevel=2
SCANS=103
centroided=TRUE
PEPMASS=206.1539
CHARGE=1+
RT=5.52
IONMODE=Positive
ADDUCT=M+H
ID=XXEPPPIWZFICOJ
SMILES=CCN(CC)C(C)C(=O)c1ccccc1
FORMULA=C13H19NO
FILENAME=2600129002_190419_MAS011_F12.mzXML
DrugBank.ID=DB00937
INCHIKEY=XXEPPPIWZFICOJ-UHFFFAOYSA-N
CPD=amfepramone
Status=approved; illicit
CAS=N/A
NAME=amfepramone
MSLEVEL=2
TIC=223018173.108398
PEPMASS_DEV=0.00214834954256617
SCAN_NUMBER=482
PARAM_SUBMIT_USER=
PARAM_SAMPLE_TYPE=
PARAM_COMMENTS=
PARAM_ALGORITHM=RMassBank
PARAM_CREATION_TIME=2021-06-26 23:21:34
DB=Inhouse
CLASS=Drug
NUM_PEAKS=41
PARAM_CONSENSUS=consensus
Superclass=Organic oxygen compounds
Class=Organooxygen compounds
Subclass=Carbonyl compounds
86.0965081471949 0.0611243943016628
89.0386267294013 0.000399343956770768
91.0541659850438 0.00126244725639971
93.0700102344672 0.00039852896479255
95.0490659879196 0.000842780324646176
100.112062365097 0.598640861070581
103.054327112814 0.00340596809540589
105.033536254594 0.0578500717051319
105.069790829425 1
107.049214376379 0.00403765803689498
115.054151169121 0.00201251980338785
117.056884562272 0.000500037062038987
117.069900324911 0.00997616028903745
118.065158219227 0.000526003155182573
119.085320739845 0.000516042320390227
121.064830337063 0.0109227136917535
128.062021782697 0.00100080736816508
128.1069438153 0.00283236392139829
130.065400652619 0.00106382774534322
131.07294185634 0.0260198669437973
132.080788135056 0.0563935868842425
133.064663217756 0.900765092060013
135.08048507583 0.00473208243850243
143.085520365042 0.00509016697511794
144.080730594845 0.0018772169621603
145.088955067213 0.00351234913710955
145.101055147879 0.00553149455760075
158.096719305643 0.00461964526058816
159.104096076161 0.0017096867864674
160.112033112755 0.0660916162992835
162.091355587658 0.00371674549913793
162.127564672048 0.00778634067484425
170.096600646103 0.0010260286115347
172.111442035028 0.00074231197928139
173.119796616093 0.00438499431693154
177.115023559817 0.00153989815480729
178.122503814747 0.00705404900281508
186.127626792813 0.00239578579244659
188.143520095789 0.0176441096942293
191.130391743902 0.0081873801582869
204.138826049574 0.00193963009985157
END IONS

BEGIN IONS
TITLE=msLevel 2; retentionTime ; scanNum 
msLevel=2
SCANS=107
centroided=TRUE
PEPMASS=481.2374
CHARGE=1+
RT=5.89
IONMODE=Positive
ADDUCT=M+Na
ID=GXDALQBWZGODGZ
SMILES=COc1ccc(cc1)CCN1CCC(CC1)N=c1[nH]c2ccccc2n1Cc1ccc(cc1)F
FORMULA=C28H31FN4O
FILENAME=2600129002_190419_MAS011_F4.mzXML
DrugBank.ID=DB00637
INCHIKEY=GXDALQBWZGODGZ-UHFFFAOYSA-N
CPD=astemizole
Status=approved; withdrawn
CAS=N/A
NAME=astemizole
MSLEVEL=2
TIC=8871431.98950195
PEPMASS_DEV=-0.000635672279453661
SCAN_NUMBER=521
PARAM_SUBMIT_USER=
PARAM_SAMPLE_TYPE=
PARAM_COMMENTS=
PARAM_ALGORITHM=RMassBank
PARAM_CREATION_TIME=2021-06-26 23:23:16
DB=Inhouse
CLASS=Drug
NUM_PEAKS=12
PARAM_CONSENSUS=consensus
Superclass=Organoheterocyclic compounds
Class=Benzimidazoles
Subclass=
80.0994720458984 0.0519795029548845
84.0932808606373 0.0965331011827592
109.0448048321 0.36130362994692
110.0474642321 0.0248509969692824
134.240432739258 0.05221107762039
137.064055607134 0.0316959409427356
182.027805109714 0.00909477499130025
193.044418334961 0.0683770324201515
217.143862263552 0.236815690914631
220.1621803121 0.217097622166196
227.0979030241 0.0679230164531412
229.144888829539 1
233.1648397121 0.022152419909028
240.135925292969 0.709381344850725
242.108699723591 0.905070810832884
246.198532104492 0.12684535960602
251.126541137695 0.138429962756771
254.109052683915 0.105016175066446
264.090637207031 1
281.039344239717 0.0206445434738541
310.1601689321 0.201723418667067
326.189629926161 0.0491032964443365
349.202594379393 0.0127394319706465
350.2101128721 0.0130878769525222
372.192199707031 0.177183106855946
457.23779296875 0.0131085396192023
END IONS

BEGIN IONS
TITLE=msLevel 2; retentionTime ; scanNum 
msLevel=2
SCANS=112
centroided=TRUE
PEPMASS=474.19
CHARGE=1+
RT=5.68
IONMODE=Positive
ADDUCT=M+Na
ID=ZGBGPEDJXCYQPH
SMILES=Cc1ccc(cc1Nc1ccc2c(c1)c(=O)n(C)cn2)N=C(c1cccc(c1)C(C)(C)C#N)O
FORMULA=C27H25N5O2
FILENAME=2600129002_190419_MAS011_F8.mzXML
DrugBank.ID=Unknown
INCHIKEY=ZGBGPEDJXCYQPH-UHFFFAOYSA-N
CPD=AZ-628
Status=experimental
CAS=N/A
NAME=AZ-628
MSLEVEL=2
TIC=16151099.1501465
PEPMASS_DEV=-0.000701425951332361
SCAN_NUMBER=501
PARAM_SUBMIT_USER=
PARAM_SAMPLE_TYPE=
PARAM_COMMENTS=
PARAM_ALGORITHM=RMassBank
PARAM_CREATION_TIME=2021-06-26 23:24:55
DB=Inhouse
CLASS=Drug
NUM_PEAKS=5
PARAM_CONSENSUS=consensus
Superclass=Benzenoids
Class=Benzene and substituted derivatives
Subclass=Anilides
95.9955825805664 0.0929409390604483
115.054510159683 0.000680305805528988
117.0698767081 0.00064994346879527
135.080437147717 0.00136486810458014
144.080651236204 0.00174144867448865
145.064900409648 0.00640787589168079
172.075455151909 1
174.066104509561 0.00219710138548049
207.091720186178 0.00140891905699992
234.111193999151 0.00227533660592113
249.090349646435 0.00394605696156001
257.090850830078 0.107767419396612
263.105543709241 0.00321284666109263
264.112969784318 0.0170495215272023
271.143561832415 0.00123188741952347
277.108716102485 0.00318364347270944
278.115166594744 0.00065665109980632
279.123875543979 0.0058100660150273
280.132065824222 0.00734418663843471
282.123879872971 0.00792087686623983
291.123932861555 0.0108893271660564
307.118870476433 0.000640989384033318
407.1866377761 0.00165802314424968
425.198730032171 0.00327192249859946
434.1975368081 0.447302184300288
437.1846263961 0.00188905491717315
447.178771972656 1
450.192268295167 0.000999696592966609
451.200219436122 0.0037590387277863
459.165771484375 0.798857493694069
471.168304443359 0.169161675630668
END IONS

BEGIN IONS
TITLE=msLevel 2; retentionTime ; scanNum 
msLevel=2
SCANS=113
centroided=TRUE
PEPMASS=248.1757
CHARGE=1+
RT=3.59
IONMODE=Positive
ADDUCT=M+H
ID=IYOZTVGMEWJPKR
SMILES=CC([C@H]1CC[C@@H](CC1)C(=O)N=c1cc[nH]cc1)N
FORMULA=C14H21N3O
FILENAME=2600129002_190419_MAS011_G1.mzXML
DrugBank.ID=DB08756
INCHIKEY=IYOZTVGMEWJPKR-YWRZDDHQSA-N
CPD=Y-27632 dihydrochloride
Status=experimental
CAS=N/A
NAME=Y-27632 dihydrochloride
MSLEVEL=2
TIC=75657136.0244141
PEPMASS_DEV=0.00174187346405626
SCAN_NUMBER=310
PARAM_SUBMIT_USER=
PARAM_SAMPLE_TYPE=
PARAM_COMMENTS=
PARAM_ALGORITHM=RMassBank
PARAM_CREATION_TIME=2021-06-26 23:25:13
DB=Inhouse
CLASS=Drug
NUM_PEAKS=16
PARAM_CONSENSUS=consensus
Superclass=Organoheterocyclic compounds
Class=Pyridines and derivatives
Subclass=Hydropyridines
95.0603746441 1
96.0443902321 0.117377076424743
107.060745760393 0.000322785073013611
109.1011768361 0.0559604635724513
111.1168269001 0.014322614688864
121.0396392001 0.0178590378515734
126.1277259321 0.0326442781217262
136.11218025853 0.000374924263967081
137.0960914561 0.00154712329028607
147.09188339857 0.000366961667761751
149.071019117166 0.000469096765661201
154.1226405521 0.00134928508379546
173.107892266576 0.000745267290255076
203.1542750281 0.00106917874736726
213.1386249641 0.00702283383727169
231.149230957031 0.34383202544458
END IONS

BEGIN IONS
TITLE=msLevel 2; retentionTime ; scanNum 
msLevel=2
SCANS=116
centroided=TRUE
PEPMASS=432.132
CHARGE=1+
RT=5.63
IONMODE=Positive
ADDUCT=M+K
ID=AAKJLRGGTJKAMG
SMILES=C#Cc1cccc(c1)Nc1c2cc(c(cc2ncn1)OCCOC)OCCOC
FORMULA=C22H23N3O4
FILENAME=2600129002_190419_MAS011_G10.mzXML
DrugBank.ID=DB00530
INCHIKEY=AAKJLRGGTJKAMG-UHFFFAOYSA-N
CPD=erlotinib
Status=approved; investigational
CAS=N/A
NAME=erlotinib
MSLEVEL=2
TIC=286977.390136719
PEPMASS_DEV=0.000170759659844582
SCAN_NUMBER=491
PARAM_SUBMIT_USER=
PARAM_SAMPLE_TYPE=
PARAM_COMMENTS=
PARAM_ALGORITHM=RMassBank
PARAM_CREATION_TIME=2021-06-26 23:25:57
DB=Inhouse
CLASS=Drug
NUM_PEAKS=3
PARAM_CONSENSUS=consensus
Superclass=Organoheterocyclic compounds
Class=Diazanaphthalenes
Subclass=Benzodiazines
82.1451099581 0.00144055962319783
89.0599136352539 0.959302375462881
158.963806152344 0.5
248.083558877422 0.000515701917270155
250.098486820654 0.0376652132213415
251.1026333801 0.0024956215528578
276.077782109923 0.0114570281771694
277.085688587486 0.0423268471416211
278.093709118916 1
280.099943216369 0.00545938583506271
290.09339381705 0.0117478031822994
291.100020402151 0.00150797331186078
292.109637722596 0.0175281965201023
293.114677386902 0.0031967554932153
298.057647705078 0.01796325351599
303.1002280761 0.00113683273454336
304.109658115513 0.0668637830232841
306.113786491143 0.00136699850262134
318.126563519877 0.0011352707172481
325.082000732422 0.0284361356401372
326.090179443359 0.0202353704987673
338.1386845401 0.0244222719629639
350.1261084761 0.000770937542781168
350.1505546266 0.0292946503556522
357.108154296875 1
359.114288330078 0.0232394038566785
362.1499179201 0.000949512619084639
384.130493164062 0.0178144868731094
END IONS

BEGIN IONS
TITLE=msLevel 2; retentionTime ; scanNum 
msLevel=2
SCANS=118
centroided=TRUE
PEPMASS=657.2592
CHARGE=2+
RT=5.31
IONMODE=Positive
ADDUCT=M+2H
ID=DNVFTXQYIYFQBW
SMILES=C=CC(=Nc1cccc(c1)CN1c2c(c[nH]c(=NCCCCN(CC)CC)n2)CN(c2c(c(cc(c2Cl)OC)OC)Cl)C1=O)O
FORMULA=C32H39Cl2N7O4
FILENAME=2600129002_190419_MAS011_G11.mzXML
DrugBank.ID=Unknown
INCHIKEY=DNVFTXQYIYFQBW-UHFFFAOYSA-N
CPD=FIIN 1 hydrochloride
Status=Unknown
CAS=N/A
NAME=FIIN 1 hydrochloride
MSLEVEL=2
TIC=337684215.929688
PEPMASS_DEV=1000001.67171759
SCAN_NUMBER=499
PARAM_SUBMIT_USER=
PARAM_SAMPLE_TYPE=
PARAM_COMMENTS=
PARAM_ALGORITHM=RMassBank
PARAM_CREATION_TIME=2021-06-26 23:29:51
DB=Inhouse
CLASS=Drug
NUM_PEAKS=118
PARAM_CONSENSUS=consensus
Superclass=Benzenoids
Class=Benzene and substituted derivatives
Subclass=Methoxybenzenes
81.0101689121 0.000566481295649438
84.0807757401 0.0094520741238213
86.0964258041 0.003061339274676
98.0964258041 0.00437987880109225
99.1044108589309 0.00116454236751553
100.1120758681 0.000878859844978052
117.0698767081 0.000550181521812906
128.1433759961 0.663615870018187
129.146766848785 0.044003643671593
132.0807757401 0.00426578816844975
146.0964258041 0.00129262413742448
152.137680961788 0.000509614456662392
159.022423864757 0.000482027315659148
160.075960498417 0.0622156644945829
161.079399739129 0.0056271953772991
177.113559585776 0.00462428451520644
178.086451181485 0.0369559217026991
179.089482302879 0.00253659249491704
189.078215985201 0.00213844481718943
189.113751110428 0.0375250715088639
201.103531011854 0.00147845257667659
203.092938204454 0.00762510471817513
217.973588995503 0.000969488301712768
282.17418860188 0.0018447156621797
336.182130767372 0.570284399210355
337.188272563478 0.0648371524825447
338.185561311934 0.00821023887102733
350.157808100965 0.00328034790309521
362.161280136925 0.0287785350602862
408.060644775987 0.00553048376094191
422.076919878455 0.0910492357528372
423.079450836827 0.0213168823175847
424.070900964251 0.040622405557774
424.093104955713 0.0577446038009713
425.09322348351 0.0178179975486928
426.088383720225 0.0463264869305954
527.13645911781 0.00740115096887375
529.15198401936 0.0261317532425716
530.150888787961 0.00910179006598177
531.145952034019 0.020486248829297
532.152465820312 0.00268390022268067
541.109834059862 0.000748947886748326
541.148218678049 0.00884161495254805
543.146875120844 0.00344041579110507
565.151252895369 0.00768578819997374
567.147020289967 0.000563528948232659
568.141436168873 0.00344979993659178
583.16162109375 0.534497136712662
584.162530774664 0.292427668248746
585.157973124074 1
586.162231445312 0.128434194191223
656.250854492188 0.536907152588052
END IONS

BEGIN IONS
TITLE=msLevel 2; retentionTime ; scanNum 
msLevel=2
SCANS=122
centroided=TRUE
PEPMASS=474.2374
CHARGE=1+
RT=5.68
IONMODE=Positive
ADDUCT=M+
ID=QAPAJIZPZGWAND
SMILES=CCOc1cc(ccc1Nc1ncc2c(n1)n(C)c1ccccc1c(=O)n2C)N1CCC(CC1)O
FORMULA=C26H30N6O3
FILENAME=2600129002_190419_MAS011_G12.mzXML
DrugBank.ID=Unknown
INCHIKEY=QAPAJIZPZGWAND-UHFFFAOYSA-N
CPD=XMD8-92
Status=experimental
CAS=N/A
NAME=XMD8-92
MSLEVEL=2
TIC=102908091.859375
PEPMASS_DEV=0.000800423485643651
SCAN_NUMBER=509
PARAM_SUBMIT_USER=
PARAM_SAMPLE_TYPE=
PARAM_COMMENTS=
PARAM_ALGORITHM=RMassBank
PARAM_CREATION_TIME=2021-06-26 23:32:33
DB=Inhouse
CLASS=Drug
NUM_PEAKS=59
PARAM_CONSENSUS=consensus
Superclass=Organoheterocyclic compounds
Class=Piperidines
Subclass=Phenylpiperidines
82.9855651855469 0.0647493745025391
155.185562133789 0.0941854952368295
174.091218386647 0.00275680052938316
176.106774237461 0.000753519872599056
178.224026326038 0.000257356436867624
179.117867175173 0.001603445503517
192.101977764944 0.0009077188304394
202.122327377181 0.00969947522764746
203.131112797232 0.00127072574260879
207.112750185888 0.00892730763313876
208.121108054489 0.00159152927116865
214.097155814005 0.0978413627278345
215.100762860214 0.00377576747208378
219.125545945257 0.00236421707760341
220.132810391267 0.0108786683607176
221.14046093946 0.0362185563279139
222.144066170376 0.00156557353037549
227.092025960016 0.000161351599434473
235.144008947418 0.00364787701487028
244.142977331149 0.00102118195918336
254.103160996282 0.00252519919224718
255.11225384523 0.00225390541601068
256.118747639449 0.00125202535658908
330.135246187012 0.00216747463917715
344.118893151079 0.0111059731045787
345.124638663648 0.00655556731464443
345.148051206598 0.00414686919557143
345.182497160805 0.00049135196388239
358.135365389968 0.00129665517805067
371.164128851536 0.00281238204849391
371.180862180395 0.000176233723975277
374.160186290494 0.00467250512578079
382.169407956916 0.00328232447167921
382.180598390714 0.000717735347448503
387.161484209764 0.00310107554730684
388.166081700489 0.0108684422329304
388.177593607238 0.000646074540956592
389.170536990834 0.00271070983831689
390.182840982873 0.0277340284739174
391.184874907017 0.00890640690684166
399.158653295155 0.00154665125744871
400.176509042843 0.0274424481335667
401.17921736598 0.00726404104273924
402.181098487896 0.00398271002262326
403.188162881354 0.0173441489142425
404.188678223585 0.00303006861395095
411.195524126783 0.00831475867575342
412.189851624046 0.0038075364793155
415.187865179578 0.0059246532574466
416.197084386844 0.0102590586163885
417.206694948935 0.141659275691027
418.211135616275 0.0638447746205326
427.190736161532 0.0168713542477315
428.198391880862 0.0565702653721632
429.205753916731 0.087942293000529
430.210458706306 0.0531019749757492
431.207773006028 0.00511414628757066
442.2111754921 0.00153754697535404
444.189866621146 0.00905559090790963
445.199278184857 0.250588029531275
445.211087527215 0.197482431805741
446.20689240762 0.428787136694428
447.212430426874 0.121586971553047
448.222192940148 0.00113346623499646
449.2421412721 0.0018194717595475
455.219536264826 0.00453273232987738
456.225482075209 0.00271110291887341
457.235321299651 0.160045728420392
458.240351896496 0.0194549219859871
460.221820209721 0.0187675754671747
461.229633117586 0.00471550622683962
467.180389404297 1
473.230134151352 0.5
474.237537318402 0.5
475.245405289911 0.5
496.218078613281 0.438280687067439
END IONS

BEGIN IONS
TITLE=msLevel 2; retentionTime ; scanNum 
msLevel=2
SCANS=130
centroided=TRUE
PEPMASS=307.189
CHARGE=1+
RT=4.68
IONMODE=Positive
ADDUCT=M+
ID=MXWDSZWTBOCWBK
SMILES=CN(C)c1ccc(cc1)C(=O)NCCCCCCC(=NO)O
FORMULA=C16H25N3O3
FILENAME=2600129002_190419_MAS011_G3.mzXML
DrugBank.ID=DB02565
INCHIKEY=MXWDSZWTBOCWBK-UHFFFAOYSA-N
CPD=M-344
Status=experimental
CAS=N/A
NAME=M-344
MSLEVEL=2
TIC=16466787.092041
PEPMASS_DEV=0.00128810171760858
SCAN_NUMBER=438
PARAM_SUBMIT_USER=
PARAM_SAMPLE_TYPE=
PARAM_COMMENTS=
PARAM_ALGORITHM=RMassBank
PARAM_CREATION_TIME=2021-06-26 23:35:22
DB=Inhouse
CLASS=Drug
NUM_PEAKS=55
PARAM_CONSENSUS=consensus
Superclass=Benzenoids
Class=Benzene and substituted derivatives
Subclass=Benzoic acids and derivatives
81.0698238716435 0.000431841849180627
96.0807527908025 0.00151377907460208
98.096366816469 0.000222159436829975
98.9843063354492 0.00140169403257859
107.072705096825 0.000158789016212296
110.096463220643 0.00119438909053916
117.090745837982 0.000188138791370118
119.072887173393 0.0017060827728827
120.080619760069 0.000617349011410968
121.028483971715 0.000188408051054543
121.088603268554 0.000478797287102411
122.096302387795 0.00761669819303911
123.099759590761 0.00032780513794797
126.091410265553 0.000512468816462896
128.107129165764 0.000102859935566509
132.044802298731 0.00020490416002087
133.052253832533 0.000157221094380287
134.059994268277 0.000763846687869487
142.086407481897 0.0010234284942462
143.118131370623 0.000897888711887136
147.067722034228 0.00164149760811868
148.075803836188 1
149.079086240343 0.0630464797859873
150.054682019298 0.000198138390817767
151.062718284416 0.000724999320705254
153.102443541385 0.000216298975804848
159.112953802543 0.00126972542500045
162.054802104639 0.00406495287871238
163.086665840691 0.000428741135478519
164.094361721974 0.216560643068986
165.078435564916 0.000222497053532396
165.090810335856 0.00013482987622447
166.086140153882 0.000259389932523699
166.09870824019 0.000109671683155676
175.133366158103 0.000106290549367974
177.102772331306 0.00063013896755861
178.109926740583 0.0945336271343444
179.08175520029 0.000141718356099385
186.076904296875 0.00364785052319401
189.138977206335 0.000250997894702913
191.117972848513 0.000570969394708609
192.125467353255 0.000857943787202697
199.084274291992 0.00617367346518776
200.092895507812 0.00205838323410512
203.15400869056 0.000376685840857433
205.133362601039 0.00137720238294685
206.140707573881 0.000222699418369613
213.099975585938 0.0123506379410337
219.149556967202 0.0013418385496725
220.156871026083 0.000588543734592509
227.115783691406 0.00756608155343782
231.185203370371 0.000116558140937675
233.164915243363 0.0105395297837801
241.130966186523 0.00214224547185207
247.180354772265 0.0015247078214353
248.188101171635 0.24530600054701
255.146881103516 0.0155224470923657
269.163055419922 0.00476017303015778
271.144815021457 0.000207524725777943
272.175450833691 0.000226779275994759
275.175575240683 0.00197153648922953
288.170411630895 0.000645849011207572
290.186652763784 0.000769194687388252
306.180984396577 0.00102201937117472
307.189090687353 0.00352504201335735
312.168090820312 0.331898007274394
329.171905517578 0.00729871336514282
345.1435546875 0.109221178774228
END IONS

BEGIN IONS
TITLE=msLevel 2; retentionTime ; scanNum 
msLevel=2
SCANS=133
centroided=TRUE
PEPMASS=403.1531
CHARGE=1+
RT=7.41
IONMODE=Positive
ADDUCT=M+K
ID=CPRAGQJXBLMUEL
SMILES=Cc1cc(C(C)Nc2ccccc2)c2nc(cc(=O)n2c1)N1CCOCC1
FORMULA=C21H24N4O2
FILENAME=2600129002_190419_MAS011_G4.mzXML
DrugBank.ID=Unknown
INCHIKEY=CPRAGQJXBLMUEL-UHFFFAOYSA-N
CPD=TGX-221
Status=experimental
CAS=N/A
NAME=TGX-221
MSLEVEL=2
TIC=7581360.44238281
PEPMASS_DEV=0.000180305550521873
SCAN_NUMBER=705
PARAM_SUBMIT_USER=
PARAM_SAMPLE_TYPE=
PARAM_COMMENTS=
PARAM_ALGORITHM=RMassBank
PARAM_CREATION_TIME=2021-06-26 23:36:38
DB=Inhouse
CLASS=Drug
NUM_PEAKS=27
PARAM_CONSENSUS=consensus
Superclass=Organoheterocyclic compounds
Class=Pyridopyrimidines
Subclass=
86.0600394351697 0.000151396650756893
88.0756913195869 0.0032654066512514
100.075836181641 0.000669676778286124
101.05982208252 0.0102443925521877
105.069976806641 0.493364280299587
106.073455810547 0.028034333622104
111.00764465332 0.00165831966323584
111.044273376465 0.035605778494054
112.075671157515 0.00025489325513916
118.061202186231 0.000140397718156674
121.065132141113 0.0101491286516737
129.018264770508 0.458134687067721
129.054672241211 0.0640115004283918
131.022308349609 0.00349939989345048
138.054954790084 0.000135459577012476
139.002624511719 0.0872334812985083
141.007843017578 0.000597290666049929
147.065307617188 0.0290651810320111
157.07596196085 0.000712595298985194
159.091812924492 0.000558674845239526
161.071018847806 0.000521800862333199
170.045257568359 0.00163860969782277
171.028381347656 0.00085489475171682
171.148895263672 0.00096737574280222
175.086594049489 0.00118059015630299
180.029388427734 0.00134053576218275
185.077508078998 1
186.102576777018 0.000934253732483134
187.086182633492 0.00531410083086369
198.030395507812 0.00240915825355025
200.118153037836 0.000170100946593902
213.075744628906 0.082911716504716
215.080581665039 0.000946230301808983
218.037689208984 0.0139347048957137
230.129505966296 0.00733044571890114
232.125289916992 0.000678539791928447
241.143020629883 0.00296211112586591
244.145178610748 0.0120263295393021
259.153839111328 0.174990558639157
259.190856933594 0.0148780011856887
261.159332275391 0.00603736186434637
269.138336181641 0.0145734691023863
270.121948242188 0.022354641285651
272.139573934276 0.493364280299587
274.100311279297 0.00925770238657642
274.14642256949 0.00753790797836477
275.101989746094 0.00112013766300262
295.129302978516 0.0212330474988607
349.165902332114 0.000837895061385174
END IONS

BEGIN IONS
TITLE=msLevel 2; retentionTime ; scanNum 
msLevel=2
SCANS=135
centroided=TRUE
PEPMASS=436.0305
CHARGE=1+
RT=5.82
IONMODE=Positive
ADDUCT=M+Na
ID=YZDJQTHVDDOVHR
SMILES=CCCS(=O)(=O)Nc1ccc(c(c1F)C(=O)c1c[nH]c2c1cc(cn2)Cl)F
FORMULA=C17H14ClF2N3O3S
FILENAME=2600129002_190419_MAS011_G5.mzXML
DrugBank.ID=DB06999
INCHIKEY=YZDJQTHVDDOVHR-UHFFFAOYSA-N
CPD=PLX-4720
Status=experimental
CAS=N/A
NAME=PLX-4720
MSLEVEL=2
TIC=732862.795654297
PEPMASS_DEV=-7.36018692261958e-06
SCAN_NUMBER=510
PARAM_SUBMIT_USER=
PARAM_SAMPLE_TYPE=
PARAM_COMMENTS=
PARAM_ALGORITHM=RMassBank
PARAM_CREATION_TIME=2021-06-26 23:40:34
DB=Inhouse
CLASS=Drug
NUM_PEAKS=10
PARAM_CONSENSUS=consensus
Superclass=Organic oxygen compounds
Class=Organooxygen compounds
Subclass=Carbonyl compounds
112.060272216797 0.271548497606951
129.038619995117 0.0074924065681692
130.041946411133 0.000342826131502274
155.017776489258 0.00310880677529262
156.025756835938 0.00728876524481238
157.02912902832 0.000415464288434226
170.025039672852 0.0011905899865671
179.00080871582 0.0217108966760083
180.004257202148 0.00222650985689504
180.997863769531 0.00588000686078139
182.916091918945 0.135088278159725
198.072387695312 0.00153992777073297
239.021636962891 1
252.056854248047 0.0104742318848445
258.024536132812 0.000564145396684948
262.034393310547 0.133373356224737
263.037933349609 0.00930536370887839
264.029693603516 0.00219985112438043
271.055267333984 0.00299642892554573
272.06103515625 0.000569774373584374
280.045227050781 0.00833823533588143
281.048126220703 0.000422910087076272
284.022918701172 0.000680894881385527
286.017974853516 0.0441105468484225
287.025482177734 0.0334610439494133
288.014862060547 0.00682820794462139
288.030120849609 0.00176849583371227
288.996765136719 0.000942594749668277
289.022796630859 0.00565141817325886
291.012756347656 0.000719646366919294
294.061187744141 0.000583349528669105
298.055328369141 0.00236847754611728
299.060272216797 0.000187769656632171
303.021026611328 0.000873173044940131
304.02880859375 0.00581185305766095
305.031311035156 0.000605613657988688
306.024230957031 0.0178261822928162
307.031677246094 0.857142857142857
308.035858154297 0.0443352047896646
309.028472900391 0.110538421942415
310.037017822266 0.00202828883016337
321.071228027344 0.000181167758571373
322.01953125 0.000479142578693191
350.086639404297 0.00148142469138117
353.991577148438 0.000831865483202432
355.988800048828 0.000112303853989814
END IONS

BEGIN IONS
TITLE=msLevel 2; retentionTime ; scanNum 
msLevel=2
SCANS=136
centroided=TRUE
PEPMASS=295.0745
CHARGE=1+
RT=5.33
IONMODE=Positive
ADDUCT=M+H
ID=CDCHDCWJMGXXRH
SMILES=c1ccc(cc1)C1=NCc2nncn2c2ccc(cc12)Cl
FORMULA=C16H11ClN4
FILENAME=2600129002_190419_MAS011_G6.mzXML
DrugBank.ID=DB01215
INCHIKEY=CDCHDCWJMGXXRH-UHFFFAOYSA-N
CPD=Estazolam
Status=approved; illicit
CAS=N/A
NAME=Estazolam
MSLEVEL=2
TIC=327612994.035156
PEPMASS_DEV=0.00135623628152429
SCAN_NUMBER=466
PARAM_SUBMIT_USER=
PARAM_SAMPLE_TYPE=
PARAM_COMMENTS=
PARAM_ALGORITHM=RMassBank
PARAM_CREATION_TIME=2021-06-26 23:41:06
DB=Inhouse
CLASS=Drug
NUM_PEAKS=37
PARAM_CONSENSUS=consensus
Superclass=Organoheterocyclic compounds
Class=Benzodiazepines
Subclass=1,4-benzodiazepines
104.049431845044 0.00624464709569011
105.069918037005 0.00179993121543314
116.049523619927 0.00122763199995604
131.060163164014 0.00455239839705476
138.010585438603 0.0608190599051804
143.060509631898 0.00164161565950694
153.021255115518 0.000980717160160224
155.060471007475 0.000726263059095252
157.063398331386 0.00706108715223315
158.071433457265 0.00959463732005981
165.02154466464 0.0233643717584806
178.077418729949 0.00105286712707298
183.066891068621 0.00386493300448226
184.074270518209 0.0010807327207115
192.032502428058 0.0974514644196558
204.080524281802 0.00159965248275012
205.07640074815 0.00505587758204228
216.067449699328 0.00125751233657071
222.089813614117 0.00356797743435319
224.026571067979 0.00103532012306029
226.042061248889 0.00531360853932835
227.048952398519 0.0123062730783788
231.080011405369 0.00114106704904217
231.091549128965 0.00267724612529563
232.098613703183 0.00185368928844068
233.05879993999 0.00769703781255098
233.094954739815 0.00468473101400021
238.042907878655 0.00148124690086523
242.058691382029 0.0290692941736801
251.038208272811 0.0172185203870014
252.043835300217 0.00294456666568701
252.043835300217 0.00294456666568701
259.09905657211 0.00480072760456937
260.106262869803 0.104838205021702
266.048001678908 0.0566577011242823
267.055773206977 1
294.066384612559 0.00267103206852927
END IONS

BEGIN IONS
TITLE=msLevel 2; retentionTime ; scanNum 
msLevel=2
SCANS=141
centroided=TRUE
PEPMASS=462.1338
CHARGE=1+
RT=5.53
IONMODE=Positive
ADDUCT=M+K
ID=KXBDTLQSDKGAEB
SMILES=C=CC(=Nc1cccc(c1)N=c1c(cnc(Nc2ccc(cc2)OCCOC)[nH]1)F)O
FORMULA=C22H22FN5O3
FILENAME=2600129002_190419_MAS011_G7.mzXML
DrugBank.ID=DB11764
INCHIKEY=KXBDTLQSDKGAEB-UHFFFAOYSA-N
CPD=AVL-292
Status=investigational
CAS=N/A
NAME=AVL-292
MSLEVEL=2
TIC=1204066.98901367
PEPMASS_DEV=0.000185207666300034
SCAN_NUMBER=491
PARAM_SUBMIT_USER=
PARAM_SAMPLE_TYPE=
PARAM_COMMENTS=
PARAM_ALGORITHM=RMassBank
PARAM_CREATION_TIME=2021-06-26 23:43:17
DB=Inhouse
CLASS=Drug
NUM_PEAKS=9
PARAM_CONSENSUS=consensus
Superclass=Benzenoids
Class=Benzene and substituted derivatives
Subclass=Anilides
80.128288269043 0.0489747643391629
85.1011962890625 0.00962680365617656
89.0595855712891 0.00553181596656451
95.0855407714844 0.0113607396845842
101.059677124023 0.00693881117904712
106.169772716808 0.00111321840887358
120.057645458582 0.000173472786157004
121.075823283757 0.000964600282081551
121.100898742676 0.00693563718728681
123.116798400879 0.0109603435429896
133.085998535156 0.00981857113782393
139.111801147461 0.0103712826272787
145.075977468338 0.0119194885785094
146.059769432215 0.000631549839919084
146.07960579332 0.00042034501815419
155.070175170898 0.0163208426129583
161.070827629005 0.000852672591885512
163.086567768206 0.000767262153226634
168.101488686577 0.000871442123761589
178.077176462479 0.000416586369970991
185.117202758789 0.0207627853949022
204.056479690542 0.00138603897749744
204.101645530289 0.0052750598716624
207.062835693359 0.00406288397663214
225.966064453125 0.0395532944253647
232.087718489439 0.00736935739985074
233.082612323084 0.00169773648684472
237.082612439656 0.000243990274037483
281.134887695312 0.0182212383780638
295.09311830103 0.000261838146750652
310.105049812229 0.00112971166882261
311.114283008655 0.00225387481001957
312.121069782902 0.0015823862249567
313.124952047862 0.000429577699275201
320.126789283271 0.00156592752510029
324.123276303747 0.00104305067185167
325.127902076492 0.000340301530571348
327.139251708984 0.00964174446192062
330.133649320908 0.000279118329123546
335.149919127828 0.00215661508984152
336.126542561674 0.000879772330652997
336.153153747955 0.000248009959770641
337.132452661263 0.00146263564009496
338.104998448704 0.00193643981505994
338.140062315256 0.00851689125942793
343.131469726562 0.011077641742258
344.11412127833 0.0012834710175818
346.108578169112 0.000962212982455378
347.113437115105 0.000357230771531298
348.124774831798 0.00707929318186527
349.130675995601 0.00212620506566722
350.141585679453 0.00371213805414479
351.14411491012 0.000609046661501615
353.140593945403 0.0012458552821281
363.161671099739 0.000733310672002382
364.119012676024 0.0287319199630545
365.127999562402 0.0545491886630415
366.137319458224 0.0628582709019311
367.1422178045 0.0124070906663575
369.162636510211 0.00726310987857802
370.167744012124 0.217782706594882
371.173083116785 0.0353977008203524
374.140764445389 0.00233555636435455
375.145217070873 0.000579983596527646
378.138441876263 0.000552716567863015
379.143245171511 0.000541394327756278
380.151998605465 0.00232302193580236
381.171468804792 0.000849034189693857
382.167515664624 0.0513694946890448
384.172534345561 0.00075261187144503
385.177886962891 0.00851519431230071
386.102386474609 0.632526958817162
387.109573364258 1
389.117797851562 0.00320394641879291
392.151053633958 0.0231465191677276
396.184248508882 0.0010822622944169
400.177659094233 0.000694111091044232
402.096008300781 0.0883656253773944
406.168034525804 0.00674192953129326
407.174696293524 0.00152329268454214
422.161783589163 0.000415603346234182
423.170461467173 0.00324940059230253
424.177795410156 0.173755928287777
444.144012451172 0.00633605681316322
445.151428222656 0.032708574204181
END IONS

BEGIN IONS
TITLE=msLevel 2; retentionTime ; scanNum 
msLevel=2
SCANS=147
centroided=TRUE
PEPMASS=571.179
CHARGE=1+
RT=5.06
IONMODE=Positive
ADDUCT=M+K
ID=QHLVBNKYJGBCQJ
SMILES=CN1CCN(CC1)c1ccc(c(c1)Nc1ncc2CCc3c(C(=N)O)nn(CCO)c3c2n1)OC(F)(F)F
FORMULA=C24H27F3N8O3
FILENAME=2600129002_190419_MAS011_G9.mzXML
DrugBank.ID=DB15110
INCHIKEY=QHLVBNKYJGBCQJ-UHFFFAOYSA-N
CPD=NMS-1286937
Status=investigational
CAS=N/A
NAME=NMS-1286937
MSLEVEL=2
TIC=1114043.91870117
PEPMASS_DEV=0.000191692377512204
SCAN_NUMBER=448
PARAM_SUBMIT_USER=
PARAM_SAMPLE_TYPE=
PARAM_COMMENTS=
PARAM_ALGORITHM=RMassBank
PARAM_CREATION_TIME=2021-06-26 23:48:44
DB=Inhouse
CLASS=Drug
NUM_PEAKS=9
PARAM_CONSENSUS=consensus
Superclass=Organoheterocyclic compounds
Class=Diazinanes
Subclass=Piperazines
86.0569065147136 0.000169284043040955
97.0763026971353 0.000437767718534317
131.153036592008 0.000355133504492505
162.009327079084 0.000311401059118907
174.008999200478 0.000111020945559684
229.148147583008 0.171615328856075
233.129669189453 0.204847298654094
290.153198242188 1
355.062761308222 0.000321503399176255
371.129220943903 0.000133890382353873
373.081761856773 0.000412555196008264
373.110176559407 0.00213924690156404
374.084798447243 0.000354547752631068
374.111908718496 0.000493543898144925
376.124108297645 0.000510708118673556
387.102750610271 0.000552421881673284
387.128874187047 0.00111047421083789
388.106384072955 0.000116820867563361
399.110696929066 0.000158077372719078
399.133087599969 0.000586430198352515
402.124262944634 0.000419813390381125
402.144344517857 0.00110944570324227
412.151054162984 0.00114723508325151
412.16935083793 0.00219259054081302
413.174019080846 0.000515406004721286
415.139619389113 0.00159553168279137
415.155611682094 0.00444712283956886
416.14270535776 0.000248805126329612
430.171806510192 0.00396325416970235
430.184187639777 0.0150486735909544
431.178635782285 0.00166853421300404
431.191328249913 0.0042097541667932
432.185040612459 0.000768575225606456
432.198867361098 0.00175741374470027
443.130354695576 0.000628946664355622
445.179693484289 0.00011347536971503
446.206581891719 0.000334056226973683
447.212384687428 0.000661273943271347
455.13794619069 0.000291358881502697
459.133021208762 0.000337183567067668
460.203347488688 0.000160253611721989
469.208435058594 0.53227621032128
470.191554140694 0.000251423000040659
470.211791992188 0.103575840262979
472.16949190604 0.00105475844535155
473.153596888277 0.00151926246274215
476.163250056455 0.000299194043595723
486.186528776472 0.00168146916008681
487.191619902254 0.00014092649981166
488.200372472508 0.000260729832133818
489.197142837124 0.00051606283907326
490.214422782501 0.133517813367012
498.186459787303 0.0045488289356085
499.191571529915 0.000345312991169155
501.1730736441 0.00306973868334129
502.179829358076 0.000270274860250853
515.21215671924 0.000866912979935294
516.197447759086 0.292337062929906
517.2031988124 0.0129691795044974
518.1996227401 0.00502303141161842
519.207437550098 0.000204870148370713
532.215018929344 0.000641381176727585
533.22543809848 0.13306905258032
END IONS

BEGIN IONS
TITLE=msLevel 2; retentionTime ; scanNum 
msLevel=2
SCANS=151
centroided=TRUE
PEPMASS=428.1644
CHARGE=1+
RT=5.65
IONMODE=Positive
ADDUCT=M+Na
ID=KOHIRBRYDXPAMZ
SMILES=C1CC(C(CNCC(C2CCc3cc(ccc3O2)F)O)O)Oc2ccc(cc12)F
FORMULA=C22H25F2NO4
FILENAME=2600129002_190419_MAS011_H10.mzXML
DrugBank.ID=DB04861
INCHIKEY=KOHIRBRYDXPAMZ-UHFFFAOYSA-N
CPD=nebivolol
Status=approved; investigational
CAS=N/A
NAME=nebivolol
MSLEVEL=2
TIC=9199645.85375977
PEPMASS_DEV=-0.000644633692241601
SCAN_NUMBER=492
PARAM_SUBMIT_USER=
PARAM_SAMPLE_TYPE=
PARAM_COMMENTS=
PARAM_ALGORITHM=RMassBank
PARAM_CREATION_TIME=2021-06-26 23:50:29
DB=Inhouse
CLASS=Drug
NUM_PEAKS=11
PARAM_CONSENSUS=consensus
Superclass=Organoheterocyclic compounds
Class=Benzopyrans
Subclass=1-benzopyrans
82.0651256761 0.000772602230494534
84.0807757401 0.00348088677431148
85.0649032592773 0.0845130885357698
88.1833096801 0.000643401930847067
94.0651256761 0.000916028136742139
103.054101970933 0.00133004464925504
109.04478485014 0.000810738246508034
123.060572230424 0.0121702062116754
125.039767692651 0.00916275809188563
133.045282379766 0.000637935381838439
137.039740421391 0.0042784308524703
139.055134271607 0.00167264743942288
147.060279144771 0.0011544239634179
149.03943170369 0.00266681112684361
149.075960886755 0.0035268357711429
151.055128304812 0.333333333333333
152.0517613561 0.00199713652409991
159.060050708578 0.000936260746904459
165.07096001764 0.0188593550676294
167.050478475572 0.00330650227786885
177.071099277345 0.0200809144361483
178.066750482296 0.00456636660052499
178.102777037194 0.00177023019707096
179.086938375054 0.00362017187289483
194.098470265709 0.00679523858323082
195.082593907746 0.0176037852032968
206.098313575114 0.0222278679579053
207.102348394925 0.00177748343940158
208.114042941981 0.0554168995451931
209.117482440094 0.00650363943097421
212.109001582942 0.0214308959568474
213.1121354441 0.000991873982193201
220.113790488454 0.00298060550482919
224.108713062593 0.0604542274549648
225.1121354441 0.00329462647873643
226.124520116159 0.00207822930675882
234.090133666992 0.189133732128262
237.112823486328 0.26321412344069
238.12445012187 0.057531008453714
239.1277855081 0.00352040293021082
264.140271775414 0.00629336896945933
276.140568000168 0.00295931976684057
282.150371226116 0.0376581761212071
304.131622314453 1
370.1613118041 0.00154319179255616
388.171122729106 0.243838530697947
END IONS

BEGIN IONS
TITLE=msLevel 2; retentionTime ; scanNum 
msLevel=2
SCANS=159
centroided=TRUE
PEPMASS=558.0642
CHARGE=1+
RT=6.06
IONMODE=Positive
ADDUCT=M+K
ID=BFSMGDJOXZAERB
SMILES=CC(C)(C)c1nc(c2cccc(c2F)NS(=O)(=O)c2c(cccc2F)F)c(c2cc[nH]c(=N)n2)s1
FORMULA=C23H20F3N5O2S2
FILENAME=2600129002_190419_MAS011_H3.mzXML
DrugBank.ID=DB08912
INCHIKEY=BFSMGDJOXZAERB-UHFFFAOYSA-N
CPD=dabrafenib
Status=approved; investigational
CAS=N/A
NAME=dabrafenib
MSLEVEL=2
TIC=143518.193359375
PEPMASS_DEV=0.00134015187268955
SCAN_NUMBER=555
PARAM_SUBMIT_USER=
PARAM_SAMPLE_TYPE=
PARAM_COMMENTS=
PARAM_ALGORITHM=RMassBank
PARAM_CREATION_TIME=2021-06-27 00:01:39
DB=Inhouse
CLASS=Drug
NUM_PEAKS=3
PARAM_CONSENSUS=consensus
Superclass=Benzenoids
Class=Benzene and substituted derivatives
Subclass=Sulfanilides
101.126411437988 0.00222716415749116
102.976043701172 0.0600371692112552
109.12361907959 0.00255208939452673
114.130981445312 0.00126209340234511
130.151186721433 0.00021103774014203
240.047241210938 0.000142993178190424
259.0451384892 0.000366431205015307
260.052615195961 0.000348154078848898
275.089532299589 0.000582428233949613
277.055480957031 0.000415445442153981
286.055498867395 0.00232033884779515
287.061553955078 0.000257257090926353
291.069598096402 0.000799825759712904
292.075826754163 0.00101532190396258
296.109887394737 0.00225944948304919
297.113256374869 0.000261339834021915
299.096592592585 0.000238854510715264
306.094177524319 0.000295006400353408
307.101869611322 0.525509086333896
308.105396759114 0.102261028341492
309.0955188473 0.0226973059264739
310.101177511323 0.000748415710309899
311.121319070559 0.000983990816483828
312.12591220287 0.000144016226607386
318.092010498047 0.0498838232083292
321.104452982648 0.000146682027185194
322.112800842369 0.0244662586659368
322.131460425866 0.000175641565193186
323.120853439777 0.0193720251153721
324.124821788482 0.0039203108285829
325.095088591986 0.00048080954379667
325.116401083701 0.000382313652023496
327.107541543709 0.00126537605671827
328.106157784969 0.000732264540379061
329.084808349609 0.0365399061629099
335.962707519531 0.00806135304773895
339.115642175902 0.000236495117066404
342.119241411821 0.00276507070033896
343.12711031786 0.0609372728287386
344.095581054688 0.0871194621778395
344.130769208078 0.00667308009132593
345.101745605469 1
345.121549203292 0.00254055152229833
346.105499267578 0.148105247182863
347.101196289062 0.0202941769340236
359.124236181983 0.000178725368165637
365.108337402344 0.26169555595596
365.130706787109 0.0116966530882582
366.113830566406 0.0366562480086281
406.07954951137 0.000372203717467069
445.104034423828 0.00637375241342652
456.1464277521 0.000211311587255353
505.084094593981 0.000296687937878861
518.092468261719 0.0769230769230769
520.1083279921 0.0769230769230769
522.08447265625 0.0285977026275478
END IONS

BEGIN IONS
TITLE=msLevel 2; retentionTime ; scanNum 
msLevel=2
SCANS=163
centroided=TRUE
PEPMASS=513.1623
CHARGE=1+
RT=5.77
IONMODE=Positive
ADDUCT=M+K
ID=RYYNGWLOYLRZLK
SMILES=CC(=NCC(=O)N1[C@H]2CC[C@@H]1c1cc(ccc21)Nc1ncc(c(=NC2CCC2)[nH]1)C(F)(F)F)O
FORMULA=C23H25F3N6O2
FILENAME=2600129002_190419_MAS011_H4.mzXML
DrugBank.ID=DB13059
INCHIKEY=RYYNGWLOYLRZLK-RBUKOAKNSA-N
CPD=PF-03814735
Status=investigational
CAS=N/A
NAME=PF-03814735
MSLEVEL=2
TIC=4014023.03149414
PEPMASS_DEV=0.000238113233969962
SCAN_NUMBER=509
PARAM_SUBMIT_USER=
PARAM_SAMPLE_TYPE=
PARAM_COMMENTS=
PARAM_ALGORITHM=RMassBank
PARAM_CREATION_TIME=2021-06-27 00:06:21
DB=Inhouse
CLASS=Drug
NUM_PEAKS=5
PARAM_CONSENSUS=consensus
Superclass=Organic acids and derivatives
Class=Carboxylic acids and derivatives
Subclass=Amino acids, peptides, and analogues
99.1339569091797 0.00025802939714666
100.03943544607 0.0700639193469601
117.066008028737 0.00511793109925315
121.037574768066 0.00104334900830177
122.021415710449 0.00394317701646238
139.047943115234 0.0674888293411001
140.049008178711 0.0047930187955729
169.076354980469 0.000184607089467576
179.054168701172 0.00031368557828122
181.102272033692 0.00123721924897288
187.094467163086 0.000643250884592525
240.111068725586 0.760448562441203
250.076347351075 0.000172221121893128
291.104095458984 0.000890802233865069
297.096047537667 0.00177830554693072
299.130183293269 0.00498529985277196
303.086120605469 0.00082046820343515
304.094451904297 0.00143620137383066
305.10107421875 0.0145683013207029
306.105010986328 0.00379711820424022
311.11224557872 0.000909476500215315
312.114176624397 0.000236614986192915
313.999420166016 0.00100417257071254
317.101507461414 0.0120350040366033
317.140228271484 0.000336496438206641
318.104010066518 0.00378449025791745
319.136442935712 0.00467705185182806
320.136322021484 0.000136168129036182
321.110639299665 0.172121766352723
322.114440917969 0.050540948305736
323.118469238281 0.00302198320907147
331.11692112666 0.0285380706194538
332.120982240669 0.00671502765606597
333.125963270716 0.000303002124410322
337.146310538834 0.00303205126300503
338.145125787972 0.0207021399785783
339.121368408203 0.0033587338491181
339.141781836126 0.0114772749191
340.144618402896 0.00172627513490537
341.1171875 0.00465987379843125
348.144099809975 0.00590048563263978
349.146328332705 0.000990241950561014
357.152505277397 0.000582157346363727
359.128051757812 0.0041499854022815
359.148016684628 1
360.150769861149 0.58157137125815
361.124359130859 0.0169897065330891
361.154737310203 0.0109122183019004
362.12939453125 0.00207268335175895
362.159969333474 0.00121748466945312
370.123840332031 0.00333581662078828
376.174652482234 0.01167931488187
377.178604672504 0.00266246462170001
381.128448486328 0.00799996272060339
382.134490966797 0.0032547830119836
398.155548095703 0.00795549434661458
399.159332275391 0.00210490997196252
409.138214111328 0.00534489950316404
419.159332275391 0.00247834444645038
429.146240234375 0.000987590995705848
437.168746065683 0.298220540060888
438.172821044922 0.0525032229978599
449.150665283203 0.00106959265698465
455.200221882667 0.00189744745596435
457.176300048828 0.0397237422315767
458.179046630859 0.019850929583924
469.157135009766 0.00575793408588249
475.2063851521 0.111767696362792
477.18212890625 0.249157931599302
493.155639648438 0.249157931599302
END IONS

BEGIN IONS
TITLE=msLevel 2; retentionTime ; scanNum 
msLevel=2
SCANS=169
centroided=TRUE
PEPMASS=351.133
CHARGE=1+
RT=4.5
IONMODE=Positive
ADDUCT=M+K
ID=UJLAWZDWDVHWOW
SMILES=C[C@@H]1CCN(C[C@@H]1N(C)c1c2cc[nH]c2ncn1)C(=O)CC#N
FORMULA=C16H20N6O
FILENAME=2600129002_190419_MAS011_H6.mzXML
DrugBank.ID=DB08895
INCHIKEY=UJLAWZDWDVHWOW-YPMHNXCESA-N
CPD=CP 690550 citrate
Status=approved; investigational
CAS=N/A
NAME=CP 690550 citrate
MSLEVEL=2
TIC=112994.175292969
PEPMASS_DEV=0.000184518954528418
SCAN_NUMBER=388
PARAM_SUBMIT_USER=
PARAM_SAMPLE_TYPE=
PARAM_COMMENTS=
PARAM_ALGORITHM=RMassBank
PARAM_CREATION_TIME=2021-06-27 00:07:52
DB=Inhouse
CLASS=Drug
NUM_PEAKS=46
PARAM_CONSENSUS=consensus
Superclass=Organoheterocyclic compounds
Class=Piperidines
Subclass=N-acylpiperidines
81.0698683102334 0.0859138600066777
82.0651348868809 0.0191000976105829
85.0396688824554 0.00119732069186844
89.9951629638672 0.0145209384827148
93.0447932044236 0.00063841002326272
94.0652467140571 0.00121036626368476
96.0446083670745 0.00188463130326445
96.0807481653817 0.00268096023522208
97.0396368106352 0.00479543446451702
97.0888529192042 0.00116886473549445
98.0964418742164 0.169139628736498
111.055272007016 0.00148511134907238
120.080764106629 0.00224277441326559
122.096466055707 0.00745937818075506
123.055278899816 0.00236595337335844
123.095574041799 0.0136998873578953
124.075692794386 0.0632520845881835
136.075615257633 0.00200075242854404
137.071078068889 0.00251099700324831
137.107377316202 0.00819556736013721
138.091288804835 0.00155338554154434
147.066370016296 0.0012047513004655
148.075350197233 0.0218622230623587
149.081765596131 1
150.078794987502 0.0143654661756856
151.054641723633 1
155.997680664062 0.00212817281615386
159.066016976316 0.000775850195115562
165.100878780641 0.406142306490507
170.056686401367 0.00239193291096406
172.086246393795 0.000665081127604515
187.098369613589 0.00187070155572463
201.113803192026 0.00257030684610934
202.121438690316 0.000989031597146283
215.129145502275 0.000982065212759419
216.087810271768 0.00667672986074108
229.144563398264 0.00852583563648656
244.156833904251 0.00390544728139073
246.171395150875 0.097667253487414
257.124206542969 0.00182004496472133
268.153076171875 0.54266633488746
270.159759521484 0.00575844883982077
272.150544033375 0.218743329099151
294.132202148438 1
296.139190673828 0.0146757025032634
296.15053311495 0.00594759688935393
END IONS

BEGIN IONS
TITLE=msLevel 2; retentionTime ; scanNum 
msLevel=2
SCANS=172
centroided=TRUE
PEPMASS=562.3112
CHARGE=1+
RT=5.19
IONMODE=Positive
ADDUCT=M+Na
ID=WXRGFPHDRFQODR
SMILES=CC(C)N(CCCN=C(Nc1ccc(cc1)C(C)(C)C)O)C[C@@H]1[C@H]([C@H]([C@H](n2ccc3c(N)ncnc23)O1)O)O
FORMULA=C28H41N7O4
FILENAME=2600129002_190419_MAS011_H7.mzXML
DrugBank.ID=Unknown
INCHIKEY=WXRGFPHDRFQODR-ICLZECGLSA-N
CPD=EPZ004777
Status=experimental
CAS=N/A
NAME=EPZ004777
MSLEVEL=2
TIC=13380274.8879395
PEPMASS_DEV=-0.000620313590674135
SCAN_NUMBER=456
PARAM_SUBMIT_USER=
PARAM_SAMPLE_TYPE=
PARAM_COMMENTS=
PARAM_ALGORITHM=RMassBank
PARAM_CREATION_TIME=2021-06-27 00:10:54
DB=Inhouse
CLASS=Drug
NUM_PEAKS=31
PARAM_CONSENSUS=consensus
Superclass=Organic oxygen compounds
Class=Organooxygen compounds
Subclass=Carbohydrates and carbohydrate conjugates
86.0964258041 0.0110751677321593
87.0998479093196 0.000729708761716289
97.0284058201 0.000724919694410449
99.2062454223633 0.000298021557070993
113.0695984081 0.0177392284318747
129.136995823377 0.0218929591155308
130.142045155943 0.0012506754799168
136.0703249161 0.00211908372516377
139.120697021484 0.00128873507502657
143.1178895201 0.000871897866524283
146.080472795568 0.00234431937376941
149.070311273947 0.0051737860787534
151.120758056641 0.00264828048156259
155.116739516465 0.0328031114962121
156.121051724054 0.00372693484111856
171.146231830076 0.00203281270118093
173.090106070822 0.00183333212361466
174.112012572336 0.00200725969462969
177.075379465848 0.0411918321161845
177.113619743366 0.0134357143519471
178.08125842218 0.00236155402768381
178.117846043416 0.00103644231705552
185.128432622565 0.00259742197830804
195.149009098072 0.00104678960406052
198.0945282841 0.000251116923468132
206.306106567383 0.000361634752325784
207.086953211339 0.013263042711244
214.143113328424 0.00142861914359983
215.101614467405 0.0619832348407195
215.137954327084 0.0795603395755949
216.1414784761 0.00454452259620092
219.12367582406 0.000335954092896599
221.127554803771 0.000911185835049586
231.086334655198 0.0128718821488643
231.16876199597 0.00174241474646348
232.089193959109 0.000989302454592214
233.162805548248 1
234.167209313868 0.0205897435960792
235.1692563961 0.00614636630576637
249.097033198156 0.0900157701363782
250.098497800578 0.0370594772794072
251.101266991804 0.000236125765941016
253.153015136719 0.00150970265588875
255.122302762489 0.000377928153040016
257.148091821339 0.0114044968761683
258.149327574896 0.00395255399840848
259.151914737338 0.00128744314743095
273.133762600546 0.000404514463886946
292.236573615452 0.00372132986957488
301.239103538814 0.00156126399251349
304.236155186294 0.0215192379135529
305.241236374014 0.000295436894683974
309.1723303961 0.00406522877507612
314.221130371094 0.0037882464716944
323.1790358079 0.000178860418247814
331.148074365018 0.00342383582498846
346.212132317345 0.000583605206555561
349.159002765779 0.108631554054793
350.162079492332 0.0269026750476344
351.163353889499 0.00121553355933768
365.226590217144 0.18499670705158
366.230031375394 0.078871581755052
367.230268213318 0.00456115436111512
384.984069824219 0.000449506415993771
387.210876464844 0.429394327259523
388.214233398438 0.259055502573895
389.217041015625 0.03422569044999
391.207183557365 0.429394327259523
392.21002124507 0.806179568659519
393.212611375788 0.0547395542765712
394.215873634514 0.0103892830707314
406.269964624525 0.00775129200674137
410.041356228744 0.000209531194244088
413.191070556641 0.00261562063100453
414.192138671875 0.0017166771591566
428.250915527344 0.00270471439148253
547.287902832031 0.000469193275863493
END IONS

BEGIN IONS
TITLE=msLevel 2; retentionTime ; scanNum 
msLevel=2
SCANS=175
centroided=TRUE
PEPMASS=530.2286
CHARGE=1+
RT=4.61
IONMODE=Positive
ADDUCT=M+Na
ID=QYZOGCMHVIGURT
SMILES=CCN(CCCOc1ccc2c(c1)ncnc2N=c1cc(CC(=Nc2cccc(c2)F)O)[nH][nH]1)CCO
FORMULA=C26H30FN7O3
FILENAME=2600129002_190419_MAS011_H8.mzXML
DrugBank.ID=Unknown
INCHIKEY=QYZOGCMHVIGURT-UHFFFAOYSA-N
CPD=barasertib-HQPA
Status=experimental
CAS=N/A
NAME=barasertib-HQPA
MSLEVEL=2
TIC=4737901.62329102
PEPMASS_DEV=-0.000614092322232979
SCAN_NUMBER=401
PARAM_SUBMIT_USER=
PARAM_SAMPLE_TYPE=
PARAM_COMMENTS=
PARAM_ALGORITHM=RMassBank
PARAM_CREATION_TIME=2021-06-27 00:12:26
DB=Inhouse
CLASS=Drug
NUM_PEAKS=24
PARAM_CONSENSUS=consensus
Superclass=Organoheterocyclic compounds
Class=Diazanaphthalenes
Subclass=Benzodiazines
86.0966339111328 0.000663399506192088
89.0355911254883 0.00126264074619926
102.091542561849 0.0248369461100983
103.094829559326 0.00042872056526029
108.078598022461 0.00895257746280258
130.122716267904 1
131.12606048584 0.0572857038275417
152.104751586914 0.0175797823950438
178.224975585938 0.00015791567736413
240.088128662109 0.00121205360708817
369.203155517578 0.00145786353097876
379.131622314453 0.025010578804298
381.136182512556 0.000423022413956949
401.113433837891 0.0503093336342758
402.115234375 0.00470546159354076
486.202667236328 0.0458631966091518
490.236907958984 0.000274970617664809
507.237091064453 0.000113941174546934
508.24609375 0.0762709756949572
END IONS

BEGIN IONS
TITLE=msLevel 2; retentionTime ; scanNum 
msLevel=2
SCANS=178
centroided=TRUE
PEPMASS=630.2087
CHARGE=1+
RT=5.98
IONMODE=Positive
ADDUCT=M+Na
ID=AKCRNFFTGXBONI
SMILES=CCC(=O)N1CCN(CC1)c1ccc(cc1C(F)(F)F)n1c(=O)ccc2cnc3ccc(cc3c12)c1cc2ccccc2nc1
FORMULA=C35H28F3N5O2
FILENAME=2600129003_190420_MAS011_A1.mzXML
DrugBank.ID=Unknown
INCHIKEY=AKCRNFFTGXBONI-UHFFFAOYSA-N
CPD=torin-1
Status=experimental
CAS=N/A
NAME=torin-1
MSLEVEL=2
TIC=3908558.34692383
PEPMASS_DEV=-0.000433045962952441
SCAN_NUMBER=694
PARAM_SUBMIT_USER=
PARAM_SAMPLE_TYPE=
PARAM_COMMENTS=
PARAM_ALGORITHM=RMassBank
PARAM_CREATION_TIME=2021-06-27 00:15:39
DB=Inhouse
CLASS=Drug
NUM_PEAKS=11
PARAM_CONSENSUS=consensus
Superclass=Organoheterocyclic compounds
Class=Quinolines and derivatives
Subclass=Phenylquinolines
89.0599013172964 0.12372769743838
99.2133232546561 0.000101808325982629
100.075711845974 0.000766011254086287
117.091156005859 0.331884936898294
133.085708618164 0.258609267022586
167.200408935547 0.242054789485461
239.126457632207 0.00016643057238949
295.2109375 0.552085405724136
355.070307334747 0.00133648037722325
356.068291616127 0.000622425417874368
377.038656817795 0.000835378630292951
451.155275927324 0.00587912408404773
452.157608655331 0.00179558613323491
469.145413362688 0.00264378264757264
470.153128043274 0.000958141952021969
475.155782066309 0.00431075254405668
476.159941770566 0.000743538971945146
489.149830236004 0.000279653650292311
490.16615998009 0.00270453295737921
491.172641684787 0.00193704514313578
492.1810955975 1
493.184381623837 0.486118922353394
494.187612082651 0.0390606431843858
495.191609515889 0.00205286719255677
509.158635602645 0.00386692502662131
512.188437056559 0.0140227034689981
513.190053694914 0.00602770385265871
514.191089434786 0.000144028644436759
530.199006764018 0.00110455231884094
531.199878112268 0.000663759647847429
532.195591013371 0.0034171179413444
533.20025558207 0.00163649734571345
548.207696716433 0.0920749501535683
549.210887468368 0.0283576619660818
550.2100735641 0.00170402143766678
551.219109913359 0.000285016487929748
552.201588955579 0.00954776970773393
553.205575270736 0.00145210449647627
568.2143297441 0.0278877438617647
569.217858709373 0.0127965031967557
570.2237122481 0.000983734502324789
588.2205579961 0.00464982280181306
608.2267862481 0.165942468449147
END IONS

BEGIN IONS
TITLE=msLevel 2; retentionTime ; scanNum 
msLevel=2
SCANS=183
centroided=TRUE
PEPMASS=640.2217
CHARGE=1+
RT=5.49
IONMODE=Positive
ADDUCT=M+Na
ID=IQCKJUKAQJINMK
SMILES=CC(C)N(CCCN=C(Nc1ccc(cc1)C(C)(C)C)O)C[C@@H]1[C@H]([C@H]([C@H](n2cc(c3c(N)ncnc23)Br)O1)O)O
FORMULA=C28H40BrN7O4
FILENAME=2600129003_190420_MAS011_A12.mzXML
DrugBank.ID=Unknown
INCHIKEY=IQCKJUKAQJINMK-HUBRGWSESA-N
CPD=SGC-0946
Status=experimental
CAS=N/A
NAME=SGC-0946
MSLEVEL=2
TIC=18361214.3483887
PEPMASS_DEV=-0.00132564900133137
SCAN_NUMBER=481
PARAM_SUBMIT_USER=
PARAM_SAMPLE_TYPE=
PARAM_COMMENTS=
PARAM_ALGORITHM=RMassBank
PARAM_CREATION_TIME=2021-06-27 00:21:33
DB=Inhouse
CLASS=Drug
NUM_PEAKS=72
PARAM_CONSENSUS=consensus
Superclass=Organic oxygen compounds
Class=Organooxygen compounds
Subclass=Carbohydrates and carbohydrate conjugates
86.0958612176199 0.00601319827165685
97.0284058201 0.000902691055173688
97.1223062041 0.000172723991199108
101.0709393281 0.000299450164528605
111.266975402832 0.000229043954695842
113.0709393281 0.0142556587996249
114.0747416001 0.000589559824138719
125.021087646484 0.000531066201278598
129.138828792798 0.00961700483648736
130.141828983022 0.000644477605949122
133.944671630859 0.000213804029473665
139.121109008789 0.000944782307358142
140.225372314453 0.000198682626808605
143.0815040121 0.000230076949750108
143.117778357888 0.000562132578667287
146.080959092619 0.00069761285716026
149.070857340193 0.00164870551574496
151.120529174805 0.00399503577526049
155.11778309082 0.0148525609742576
156.121018933502 0.00125629376416806
160.0968197281 0.000101668057043925
171.148713225135 0.000782121565636118
173.01496887207 0.000886693327603404
173.091624996688 0.00126654257679629
174.112100732016 0.00161554074399036
175.038401598848 0.000183707508272099
177.101553762434 0.000472159624385855
178.224502563477 0.00222959732877642
179.081115581898 0.000120124555361806
181.131439208984 0.000862966591926375
185.127963139303 0.00147023446443686
193.131362915039 0.000963130610505224
198.0945282841 0.000567696492993394
199.046906155142 0.000177552506645191
212.977561981451 0.017921252242588
213.981365105677 0.00122198211780212
214.144713181833 0.000163518578992278
214.9760859521 0.00432051047882306
215.103182821419 0.0241582751244271
215.139013647384 0.00776613714402076
215.978429639186 0.000272345340403835
216.10735803433 0.00242746947271111
216.14282414604 0.00113822974549897
217.109759135277 0.00019682496896979
221.129080498511 0.000981236862145427
231.172528776839 0.00298558458096511
233.165914409594 0.365420434499894
234.17036406615 0.0554107364567813
235.173760314715 0.00300918730239517
239.145013703152 0.000390369828587751
253.152908325195 0.00242176266257851
254.991637745166 0.00513535900728622
255.026964149841 0.00176364521949006
256.985652546673 0.00323415917342941
257.152316488069 0.046820109732905
258.15969382201 0.00589734718216508
259.163445823504 0.000319320094440406
284.999215778676 0.000657044192667933
285.012913935146 0.000551569859684279
286.996040732345 0.000786207524653241
287.01100703446 0.000744005993253695
292.23822503424 0.000743346031389697
294.172885719195 0.000391807254893988
297.016355202567 0.000192810833914279
304.238217713392 0.00680835411869519
304.257588747105 0.00163513029956218
305.241696105106 0.000465961528993467
308.998010952159 0.00305949027743539
309.018488197201 0.00345368993949824
310.000909510241 0.000493138760606581
310.02171680901 0.000132384793892284
310.996239713566 0.00125897069005928
311.017345805089 0.00127553085880149
311.999962245756 0.000578421769805252
314.22119140625 0.00620391879459825
327.008498011358 0.0402188028329663
327.034127621119 0.0292347824097782
328.011579674797 0.00319367891983796
328.037593436458 0.00540657803834338
329.00642159717 0.0126586024601037
329.032604715916 0.0109732336355143
330.009961024003 0.00659190673792551
364.259024602297 0.000729359367485679
364.295879234413 0.00171608146855887
386.082794189453 0.00175426948581326
386.127926638292 0.00328859915234381
387.130370577043 0.000298672737836916
388.079864501953 0.00116509575401291
388.125733126041 0.00196904253349889
389.237625810875 0.000107160970894324
406.270965576172 0.00155346634077208
406.322893684767 0.00048840363208071
409.06325205716 0.00265892796915888
411.061545405828 0.00217447434807651
426.113259748926 0.00109126125373059
427.073053959754 0.0332381009187546
428.076473098695 0.00687338199566178
428.110305710698 0.00139183868899769
428.253479003906 0.00310454515864327
429.071033013326 0.0400947620956332
430.072906494141 0.00173622086289155
433.100620278456 0.000290474219592735
443.140958738489 0.0543217749334748
444.143786254369 0.0121745577040715
445.138837513081 0.0544506931635231
446.141387939453 0.00431375003653084
453.208557128906 0.0011456206256163
465.121673583984 0.400888116077258
466.124847412109 0.169002270120362
467.119720458984 0.689972393348438
469.119611819362 0.469565152482244
470.12309686156 0.0844424783090247
471.117599991004 1
472.120391845703 0.0251756432177461
491.102081298828 0.00202132324415369
493.101013183594 0.00388218289034494
532.06191083507 0.00020288803504246
618.239685058594 0.0845842230483437
END IONS

BEGIN IONS
TITLE=msLevel 2; retentionTime ; scanNum 
msLevel=2
SCANS=187
centroided=TRUE
PEPMASS=288.1471
CHARGE=1+
RT=7.66
IONMODE=Positive
ADDUCT=M+Na
ID=REYFJDPCWQRWAA
SMILES=c1ccc(cc1)CN(CC1=NCCN1)c1ccccc1
FORMULA=C17H19N3
FILENAME=2600129003_190420_MAS011_A3.mzXML
DrugBank.ID=DB08799
INCHIKEY=REYFJDPCWQRWAA-UHFFFAOYSA-N
CPD=antazoline
Status=approved
CAS=N/A
NAME=antazoline
MSLEVEL=2
TIC=5296848.64453125
PEPMASS_DEV=-0.0011015528299904
SCAN_NUMBER=719
PARAM_SUBMIT_USER=
PARAM_SAMPLE_TYPE=
PARAM_COMMENTS=
PARAM_ALGORITHM=RMassBank
PARAM_CREATION_TIME=2021-06-27 00:31:42
DB=Inhouse
CLASS=Drug
NUM_PEAKS=7
PARAM_CONSENSUS=consensus
Superclass=Benzenoids
Class=Benzene and substituted derivatives
Subclass=Phenylmethylamines
83.0605130001982 0.000252602805800315
84.0682107275609 0.00025020788953446
90.0462321825474 0.000190652242513418
91.054247229075 0.418115895487245
104.049672638776 0.00035352882818377
106.065040100276 0.0236938310518428
115.054351806641 0.00768664032553595
117.069900512695 1
118.064988736356 0.00290743087952468
120.080983674622 0.000431637662005673
132.067920724581 0.000243299772870652
132.080845357408 0.000192369273104962
133.076321055175 0.000569836337670102
134.096317811883 0.000312754258887792
141.069869995117 0.316025105880437
145.075853119792 0.000268753875594695
146.083869881493 0.000320450274995277
146.096405029297 0.00546916309205283
147.09187208211 0.000865922722687797
158.083820273323 0.000342189148966658
161.107634864909 0.0439590629989592
163.122647119349 0.000278894521056696
165.069946289062 0.00245924456761901
170.09651184082 0.0310317569141884
173.106958603589 0.000390138394858591
174.102690300815 0.00353719746470825
174.115873575278 0.000234804636533482
175.110457963218 0.0186846384561862
184.111917593776 0.000280947689288895
194.096426139161 0.000286306188899363
196.112099072671 1
220.111906542913 0.000429207581386819
223.123031749362 0.000384610670480681
249.139623613495 0.000348885395986022
END IONS

BEGIN IONS
TITLE=msLevel 2; retentionTime ; scanNum 
msLevel=2
SCANS=188
centroided=TRUE
PEPMASS=355.1724
CHARGE=1+
RT=2.56
IONMODE=Positive
ADDUCT=M+H
ID=WPVFJKSGQUFQAP
SMILES=CC(C)[C@@H](C(=O)OCC(CO)OCn1cnc2c1[nH]c(=N)nc2O)N
FORMULA=C14H22N6O5
FILENAME=2600129003_190420_MAS011_A4.mzXML
DrugBank.ID=DB01610
INCHIKEY=WPVFJKSGQUFQAP-GKAPJAKFSA-N
CPD=valganciclovir
Status=approved; investigational
CAS=N/A
NAME=valganciclovir
MSLEVEL=2
TIC=5219616.56835938
PEPMASS_DEV=0.0011492747314075
SCAN_NUMBER=226
PARAM_SUBMIT_USER=
PARAM_SAMPLE_TYPE=
PARAM_COMMENTS=
PARAM_ALGORITHM=RMassBank
PARAM_CREATION_TIME=2021-06-27 00:32:05
DB=Inhouse
CLASS=Drug
NUM_PEAKS=20
PARAM_CONSENSUS=consensus
Superclass=Organic acids and derivatives
Class=Carboxylic acids and derivatives
Subclass=Amino acids, peptides, and analogues
84.0809020996094 0.0179202897750813
103.039161682129 0.00168510900084831
130.086135864258 0.00122185721535537
132.080169677734 0.000614662251232785
135.029861450195 0.000679743954980797
147.101791381836 0.000905510839071219
152.056640625 1
153.053680419922 0.0164842423939431
154.061614990234 0.00201050106737137
164.056549072266 0.00321947411801938
176.128173828125 0.0244833088716307
177.131484985352 0.00178237248831926
186.11247253418 0.0257625610417401
187.115737915039 0.00152023592945773
187.115737915039 0.00152023592945773
192.123550415039 0.00132189596019573
192.123550415039 0.00132189596019573
204.123046875 0.0411940402059892
205.126510620117 0.00395178712329464
287.148345947266 0.000771998841170931
END IONS

BEGIN IONS
TITLE=msLevel 2; retentionTime ; scanNum 
msLevel=2
SCANS=190
centroided=TRUE
PEPMASS=470.2275
CHARGE=1+
RT=4.88
IONMODE=Positive
ADDUCT=M+Na
ID=AHJRHEGDXFFMBM
SMILES=Cc1c2cnc(Nc3ccc(cn3)N3CCNCC3)nc2n(C2CCCC2)c(=O)c1C(=O)C
FORMULA=C24H29N7O2
FILENAME=2600129003_190420_MAS011_A6.mzXML
DrugBank.ID=DB09073
INCHIKEY=AHJRHEGDXFFMBM-UHFFFAOYSA-N
CPD=palbociclib
Status=approved; investigational
CAS=N/A
NAME=palbociclib
MSLEVEL=2
TIC=1435921.99609375
PEPMASS_DEV=-0.000730304439055829
SCAN_NUMBER=417
PARAM_SUBMIT_USER=
PARAM_SAMPLE_TYPE=
PARAM_COMMENTS=
PARAM_ALGORITHM=RMassBank
PARAM_CREATION_TIME=2021-06-27 00:32:32
DB=Inhouse
CLASS=Drug
NUM_PEAKS=9
PARAM_CONSENSUS=consensus
Superclass=Organoheterocyclic compounds
Class=Diazinanes
Subclass=Piperazines
144.100906197587 0.000331183086679195
162.10286501945 0.00108183126449543
178.234634399414 0.126227206335152
204.205184936523 0.169176380376646
224.025329589844 0.11495591692244
335.12632675653 0.000546469837430085
337.142257570268 0.00126852827435198
362.175041370999 0.00183885498693852
380.1829493641 1
382.1900461241 0.0227085324325196
402.164581298828 1
404.181884765625 0.398224651588212
405.2033504601 0.00121910449958042
END IONS

BEGIN IONS
TITLE=msLevel 2; retentionTime ; scanNum 
msLevel=2
SCANS=195
centroided=TRUE
PEPMASS=370.0768
CHARGE=1+
RT=3.99
IONMODE=Positive
ADDUCT=M+K
ID=XPZQPVYGEOEOKS
SMILES=CN=C(C[N+](=O)[O-])NCCSCC1=CSC(=N1)CN(C)C
FORMULA=C12H21N5O2S2
FILENAME=2600129003_190420_MAS011_A9.mzXML
DrugBank.ID=Unknown
INCHIKEY=XPZQPVYGEOEOKS-UHFFFAOYSA-N
CPD=Pubchem_52330067
Status=Unknown
CAS=N/A
NAME=Pubchem_52330067
MSLEVEL=2
TIC=540098.650634766
PEPMASS_DEV=0.00185850805630135
SCAN_NUMBER=351
PARAM_SUBMIT_USER=
PARAM_SAMPLE_TYPE=
PARAM_COMMENTS=
PARAM_ALGORITHM=RMassBank
PARAM_CREATION_TIME=2021-06-27 00:35:52
DB=Inhouse
CLASS=Drug
NUM_PEAKS=18
PARAM_CONSENSUS=consensus
Superclass=Organoheterocyclic compounds
Class=Azoles
Subclass=Thiazoles
80.0106430053711 0.000985955873289382
82.0648466879015 0.000512731128761566
83.0603448675347 0.00265253766590735
85.0396227896478 0.00116626964899966
85.0760378815746 0.00175373306116922
87.0553238043172 0.00069701848138427
88.0214416378305 0.000554493216855781
89.0598297119141 0.0781405553067788
97.0760241263289 0.000775714654241824
98.0058873305208 0.0015742791281876
98.0839362564801 0.00310683928635826
99.0916828753431 0.118532921553887
100.099478687116 0.159538238538787
101.03447212491 0.00102041956652421
101.05980682373 0.382274262917771
101.100740818587 0.0199515551954658
102.03716141626 0.00421356860554642
111.013937204809 0.00154993440686828
111.044189453125 1
112.021532624725 0.00976742037498302
113.027339626836 0.00323679228599061
113.107337459116 0.000613408546950996
114.037122393636 0.000696776765266298
115.086523301184 0.00316629826531459
116.016451677787 0.000781452119776679
116.094401301605 0.00783078743932082
117.048169092385 0.00239783153683955
123.016593933105 0.0123371068547665
124.006729125977 0.000768014195367229
129.051356189652 0.745339954563769
130.055988965996 0.000823658292206263
131.063713017936 0.361206891257776
132.067127666301 0.0158009902783966
133.059554518426 0.0285376251084139
133.08610534668 0.0428607573768486
136.048736572266 0.000863649053794392
138.037157259191 0.00208389285182223
139.032329140153 0.00569630582541628
141.048125216818 0.00594835541363392
142.043404621398 0.00365818440566264
142.985903783798 0.00264014090008193
143.993713330852 0.00445724903868468
144.011169420591 0.00188330330821407
144.076797603707 0.000872164376814279
145.042726164489 0.000624367707226798
145.0798050532 0.000574127606838382
147.061936219101 0.504776228534172
148.066081069677 0.100209525182923
153.048232460653 0.000699243044945388
154.055862169011 0.1326365821015
155.063728511516 0.75130060424609
156.05215581142 0.00510167270537136
156.067017887887 0.0469553091862362
157.059496502466 0.056436902163356
157.07907355499 0.00271105017120666
157.973178838737 0.00100234597659775
158.008823423866 0.000629046974431479
158.038089825659 0.00137588329641284
164.968063354492 0.00506766436028566
166.963256835938 0.000834396952234598
167.063910553602 0.00311543656367904
170.009487093126 0.00522969091403833
171.004498267182 0.000985338019152716
171.016979808435 0.0129072175903055
171.05830012347 0.000882548717894772
172.024873792798 0.0183073187923229
173.028375877696 0.000723934728724024
173.074243498949 0.01385677875654
174.02089316947 0.00158133190748391
174.0774266766 0.000662432367092894
176.049540903381 0.000489944764848694
177.150955200195 0.000823712616765021
178.053588867188 0.00487217017252814
181.079190748925 0.00180772135441862
182.075040827161 0.000990528755963791
186.003981887077 0.0171786005281462
186.027968698215 0.00433961485249172
187.035628251901 0.13309159633845
187.99966271668 0.000684733440232007
188.039427093248 0.0178668517025502
188.093275321797 0.000664847722835882
189.031415440803 0.0195349698917936
189.051587542113 0.000647655717046191
196.09020351044 0.043320021116824
199.035701523365 0.0153534237865791
200.03997260237 0.00205685123283166
201.031583774266 0.00136316590626398
201.05126768343 0.00135538086306897
203.03061458282 0.000955298100758543
208.091250948641 0.00119968265422288
209.020195007325 0.0666357038594957
210.025680541992 0.0176361888603656
210.105788124765 0.0032631051457538
211.027594074801 0.00587800567179764
212.021377563477 0.00240879932610042
212.04325159914 0.0052126480160824
213.014951206999 0.00133325438628221
214.059267689853 0.00153976045226833
215.067141095992 0.198531575972044
216.071097943961 0.0412614358151108
217.06282453219 0.0162949883549142
217.074451712491 0.00104228298055868
217.100162736526 0.00192237869404446
226.0470713289 0.00932809262199141
227.051030881075 0.00131025630836179
228.062299466704 0.00199713970513695
230.078702617043 0.0087504244475164
231.086110762748 0.0147207103949504
232.093473160185 0.380829516165004
233.097265010024 0.0800843816581429
238.009638484693 0.000629526424086394
239.053368522862 0.000594005305971368
241.071107205666 0.0116282674487011
242.077071321237 0.00184785472617486
243.085685671883 0.267255504849434
244.089509271787 0.0303600677815535
251.042219936571 0.0230585077995296
254.075393676758 0.744375451390724
255.07893371582 0.226195673399062
256.070983886719 0.0584822942834602
257.088317781251 0.00120793328769082
258.072935090442 0.183347410398577
269.052808712963 0.00219165214870003
270.049621582031 0.891850838717573
271.10453928346 0.232547945413527
280.0546875 0.229678157359103
282.049896240234 0.017818771286839
284.112981519286 0.00191076718699597
285.11990774294 0.00151200281830966
286.127963900207 0.200142699291039
287.06329675477 0.00430053288212736
287.099490583808 0.00244494090372985
293.086456298828 0.0309209059048904
296.029754638672 0.186850808586228
296.099384854437 0.00480800673842411
297.107897854067 0.00365912195833815
301.07899210216 0.00739135688263756
302.10975124608 0.00152827320174796
314.11058877369 0.0308105484606633
END IONS

BEGIN IONS
TITLE=msLevel 2; retentionTime ; scanNum 
msLevel=2
SCANS=196
centroided=TRUE
PEPMASS=277.1911
CHARGE=1+
RT=4.85
IONMODE=Positive
ADDUCT=M+H
ID=KLPWJLBORRMFGK
SMILES=CCc1c(C)[nH]c2CCC(CN3CCOCC3)C(=O)c12
FORMULA=C16H24N2O2
FILENAME=2600129003_190420_MAS011_B1.mzXML
DrugBank.ID=DB01618
INCHIKEY=KLPWJLBORRMFGK-UHFFFAOYSA-N
CPD=molindone
Status=approved
CAS=N/A
NAME=molindone
MSLEVEL=2
TIC=100094663.859375
PEPMASS_DEV=0.00156964202053541
SCAN_NUMBER=438
PARAM_SUBMIT_USER=
PARAM_SAMPLE_TYPE=
PARAM_COMMENTS=
PARAM_ALGORITHM=RMassBank
PARAM_CREATION_TIME=2021-06-27 00:36:05
DB=Inhouse
CLASS=Drug
NUM_PEAKS=3
PARAM_CONSENSUS=consensus
Superclass=Organoheterocyclic compounds
Class=Indoles and derivatives
Subclass=
100.075744628906 1
176.106826782227 0.000609287883161637
259.179867432679 0.000254720534389615
END IONS

BEGIN IONS
TITLE=msLevel 2; retentionTime ; scanNum 
msLevel=2
SCANS=201
centroided=TRUE
PEPMASS=303.0612
CHARGE=1+
RT=3.86
IONMODE=Positive
ADDUCT=M+H
ID=QQBDLJCYGRGAKP
SMILES=c1cc(c(cc1N=Nc1ccc(c(c1)C(=O)O)O)C(=O)O)O
FORMULA=C14H10N2O6
FILENAME=2600129003_190420_MAS011_B12.mzXML
DrugBank.ID=DB01250
INCHIKEY=QQBDLJCYGRGAKP-UHFFFAOYSA-N
CPD=Olsalazine
Status=approved
CAS=N/A
NAME=Olsalazine
MSLEVEL=2
TIC=2868656.8359375
PEPMASS_DEV=0.00141255579311592
SCAN_NUMBER=329
PARAM_SUBMIT_USER=
PARAM_SAMPLE_TYPE=
PARAM_COMMENTS=
PARAM_ALGORITHM=RMassBank
PARAM_CREATION_TIME=2021-06-27 00:37:59
DB=Inhouse
CLASS=Drug
NUM_PEAKS=17
PARAM_CONSENSUS=consensus
Superclass=Organoheterocyclic compounds
Class=Azobenzenes
Subclass=
81.0335845947266 0.026694830833028
113.059936523438 0.0596523158791494
119.012634277344 0.146397870171562
134.023788452148 0.0513191934168258
137.023468017578 0.118153924278251
155.033630371094 0.0412110368949291
165.029479980469 0.433234020897786
171.054977416992 0.03055243088976
183.044281005859 0.0394235341106507
183.055526733398 0.0418014757221864
211.039306640625 0.0295103219797257
211.049880981445 0.0258937416295924
239.045394897461 0.0541159014235824
257.056762695312 0.0286016514636479
267.040344238281 0.095549778210558
274.047271728516 0.195104481118297
285.05029296875 1
END IONS

BEGIN IONS
TITLE=msLevel 2; retentionTime ; scanNum 
msLevel=2
SCANS=202
centroided=TRUE
PEPMASS=302.1167
CHARGE=1+
RT=6.57
IONMODE=Positive
ADDUCT=M+H
ID=PBBRWFOVCUAONR
SMILES=CC(C)(C)n1c2c(c(c3ccc(cc3)Cl)n1)c(N)ncn2
FORMULA=C15H16ClN5
FILENAME=2600129003_190420_MAS011_B2.mzXML
DrugBank.ID=DB03023
INCHIKEY=PBBRWFOVCUAONR-UHFFFAOYSA-N
CPD=PP-2
Status=experimental
CAS=N/A
NAME=PP-2
MSLEVEL=2
TIC=219858389.732422
PEPMASS_DEV=0.0013057562522032
SCAN_NUMBER=571
PARAM_SUBMIT_USER=
PARAM_SAMPLE_TYPE=
PARAM_COMMENTS=
PARAM_ALGORITHM=RMassBank
PARAM_CREATION_TIME=2021-06-27 00:38:15
DB=Inhouse
CLASS=Drug
NUM_PEAKS=9
PARAM_CONSENSUS=consensus
Superclass=Organoheterocyclic compounds
Class=Azoles
Subclass=Pyrazoles
183.079574584961 0.000377973030624407
204.033096313477 0.000229796672408166
211.085342407227 0.000265894943775941
219.043365478516 0.000360034380034844
229.027954101562 0.00047006976011644
244.0384493241 0.000188623249577904
245.0462743561 0.000203776321213845
246.0540993881 1
272.0697494521 0.000330126315896791
END IONS

BEGIN IONS
TITLE=msLevel 2; retentionTime ; scanNum 
msLevel=2
SCANS=205
centroided=TRUE
PEPMASS=313.1078
CHARGE=1+
RT=4.96
IONMODE=Positive
ADDUCT=M+Na
ID=OJFSXZCBGQGRNV
SMILES=CN(C)CCOC(c1ccc(cc1)Cl)c1ccccn1
FORMULA=C16H19ClN2O
FILENAME=2600129003_190420_MAS011_B4.mzXML
DrugBank.ID=DB00748
INCHIKEY=OJFSXZCBGQGRNV-UHFFFAOYSA-N
CPD=carbinoxamine
Status=approved
CAS=N/A
NAME=carbinoxamine
MSLEVEL=2
TIC=343576.78125
PEPMASS_DEV=-0.00109965107475109
SCAN_NUMBER=458
PARAM_SUBMIT_USER=
PARAM_SAMPLE_TYPE=
PARAM_COMMENTS=
PARAM_ALGORITHM=RMassBank
PARAM_CREATION_TIME=2021-06-27 00:38:48
DB=Inhouse
CLASS=Drug
NUM_PEAKS=1
PARAM_CONSENSUS=consensus
Superclass=Benzenoids
Class=Benzene and substituted derivatives
Subclass=Benzylethers
88.0759582519531 0.0117552328903563
103.030555725098 0.5
167.0729507081 0.120760334378248
201.033867118931 0.000226047246417717
202.041724746252 1
246.0680181361 0.0122542742287383
END IONS

BEGIN IONS
TITLE=msLevel 2; retentionTime ; scanNum 
msLevel=2
SCANS=209
centroided=TRUE
PEPMASS=421.158
CHARGE=1+
RT=7.33
IONMODE=Positive
ADDUCT=M+H
ID=JKIXLEKBXHMXTN
SMILES=CCc1cc2c(=O)c(coc2c(CN2CCCCC2)c1O)c1nc2ccccc2s1
FORMULA=C24H24N2O3S
FILENAME=2600129003_190420_MAS011_B7.mzXML
DrugBank.ID=Unknown
INCHIKEY=JKIXLEKBXHMXTN-UHFFFAOYSA-N
CPD=SZL P1-41
Status=Unknown
CAS=N/A
NAME=SZL P1-41
MSLEVEL=2
TIC=29651093.3088379
PEPMASS_DEV=0.00176416145208748
SCAN_NUMBER=638
PARAM_SUBMIT_USER=
PARAM_SAMPLE_TYPE=
PARAM_COMMENTS=
PARAM_ALGORITHM=RMassBank
PARAM_CREATION_TIME=2021-06-27 00:39:35
DB=Inhouse
CLASS=Drug
NUM_PEAKS=11
PARAM_CONSENSUS=consensus
Superclass=Organoheterocyclic compounds
Class=Benzopyrans
Subclass=1-benzopyrans
84.0809631347656 0.00716162463540616
86.0965728759766 0.636919964988094
88.103271484375 0.000316275601709304
308.072662353516 0.000291234280237543
336.068634033203 1
337.071838378906 0.210772511952083
339.088775634766 0.0022708438562973
340.082611083984 0.000366719740649032
353.025085449219 0.000628194122750139
398.108825683594 0.000644005266330004
420.149353027344 0.000376884129150758
END IONS

BEGIN IONS
TITLE=msLevel 2; retentionTime ; scanNum 
msLevel=2
SCANS=211
centroided=TRUE
PEPMASS=267.1128
CHARGE=1+
RT=5.37
IONMODE=Positive
ADDUCT=M+H
ID=HBXDLZBPKJEWHZ
SMILES=COc1cc2c(cc(cn2)c2ccncc2)c(c1)OC
FORMULA=C16H14N2O2
FILENAME=2600129003_190420_MAS011_B9.mzXML
DrugBank.ID=Unknown
INCHIKEY=HBXDLZBPKJEWHZ-UHFFFAOYSA-N
CPD=DMPQ dihydrochloride
Status=Unknown
CAS=N/A
NAME=DMPQ dihydrochloride
MSLEVEL=2
TIC=275800985.804688
PEPMASS_DEV=0.0016326088060608
SCAN_NUMBER=471
PARAM_SUBMIT_USER=
PARAM_SAMPLE_TYPE=
PARAM_COMMENTS=
PARAM_ALGORITHM=RMassBank
PARAM_CREATION_TIME=2021-06-27 00:40:05
DB=Inhouse
CLASS=Drug
NUM_PEAKS=10
PARAM_CONSENSUS=consensus
Superclass=Organoheterocyclic compounds
Class=Pyridines and derivatives
Subclass=Bipyridines and oligopyridines
170.083850002825 0.00124091587647405
181.075872270469 0.000941654055551109
194.0838497401 0.00157206026190058
207.0916747721 0.00254868739576284
209.0709393281 0.0197112342580878
222.078674316406 0.00786914173291238
223.087051391602 0.0566179097505862
224.094573974609 0.0182779592092027
251.0815040121 0.02545138610952
252.0893290441 1
END IONS

BEGIN IONS
TITLE=msLevel 2; retentionTime ; scanNum 
msLevel=2
SCANS=213
centroided=TRUE
PEPMASS=296.1342
CHARGE=1+
RT=5.65
IONMODE=Positive
ADDUCT=M+
ID=HTMIBDQKFHUPSX
SMILES=CN1CCC(C1)CN1c2ccccc2Sc2ccccc12
FORMULA=C18H20N2S
FILENAME=2600129003_190420_MAS011_C1.mzXML
DrugBank.ID=DB00902
INCHIKEY=HTMIBDQKFHUPSX-UHFFFAOYSA-N
CPD=Methdilazine
Status=approved
CAS=N/A
NAME=Methdilazine
MSLEVEL=2
TIC=84552221.1953125
PEPMASS_DEV=0.00242353214816511
SCAN_NUMBER=525
PARAM_SUBMIT_USER=
PARAM_SAMPLE_TYPE=
PARAM_COMMENTS=
PARAM_ALGORITHM=RMassBank
PARAM_CREATION_TIME=2021-06-27 00:40:38
DB=Inhouse
CLASS=Drug
NUM_PEAKS=25
PARAM_CONSENSUS=consensus
Superclass=Organoheterocyclic compounds
Class=Benzothiazines
Subclass=Phenothiazines
82.0651874696034 0.00198487306899348
83.0728253419952 0.0018853652261416
84.0808179202077 0.00766509859182605
94.0647189526966 0.000123535473874316
96.0808967744342 0.0133304976272273
97.0885933490538 0.00477357328112222
98.0964200550631 1
99.1039807346612 0.00688516912874297
100.102989281908 0.000882522533416463
124.02151342974 0.000167756508348638
136.021538982298 0.00121521565201336
180.080771138955 0.0029096456348313
198.037173932525 0.000873915407729916
199.045405273786 0.0372263099026583
200.048869648458 0.00389924294221899
204.080774760985 0.000540203563134407
212.053150658553 0.0616212807841652
213.056562948613 0.00823661953241334
214.068527492787 0.00591085300917046
215.072609403184 0.000555850892408464
218.096881231825 0.00163624322669059
223.044947314191 0.00860804754948044
224.052925555271 0.0101407076675844
232.111837303967 0.000280577017538632
233.119552405102 0.00300183479349222
234.1282313587 0.00384634077223063
236.053299330079 0.00438449567325217
237.060796049961 0.0630353806891696
238.064583940042 0.00989965192706323
251.076506851679 0.00275800880705871
266.099751164749 0.227310876685496
282.118477424209 0.000518894921214965
296.133719998392 0.000424762878033515
END IONS

BEGIN IONS
TITLE=msLevel 2; retentionTime ; scanNum 
msLevel=2
SCANS=216
centroided=TRUE
PEPMASS=302.1625
CHARGE=1+
RT=6.49
IONMODE=Positive
ADDUCT=M+
ID=RTKIYFITIVXBLE
SMILES=C/C(=C\[C@@H](C)C(=O)c1ccc(cc1)N(C)C)/C=C/C(=NO)O
FORMULA=C17H22N2O3
FILENAME=2600129003_190420_MAS011_C10.mzXML
DrugBank.ID=DB04297
INCHIKEY=RTKIYFITIVXBLE-QEQCGCAPSA-N
CPD=trichostatin-a
Status=experimental
CAS=N/A
NAME=trichostatin-a
MSLEVEL=2
TIC=1077815.30371094
PEPMASS_DEV=0.00132773173610628
SCAN_NUMBER=597
PARAM_SUBMIT_USER=
PARAM_SAMPLE_TYPE=
PARAM_COMMENTS=
PARAM_ALGORITHM=RMassBank
PARAM_CREATION_TIME=2021-06-27 00:42:01
DB=Inhouse
CLASS=Drug
NUM_PEAKS=31
PARAM_CONSENSUS=consensus
Superclass=Organic oxygen compounds
Class=Organooxygen compounds
Subclass=Carbonyl compounds
80.0493871594281 0.000250615659889347
81.0697742360957 0.000304645265932405
85.0649019787165 0.00195253537386548
91.0542200628962 0.00142368219911565
93.0571616089495 0.000331603753415988
93.0698668284068 0.0262171568053632
94.0691412450594 0.00219672785794634
95.0492065258953 0.00359943351504727
95.0854939490967 0.00067086082341743
96.0081186416625 0.000389568666649157
96.0442896800246 0.000324333317912699
97.0283463942568 0.000158933318354615
97.0649980858133 0.000105240011322499
98.059911468931 0.000551417908309211
100.075640204188 0.000412710209126778
103.054224072068 0.000123599219752186
105.057021840467 0.000100944034458046
105.069846889723 0.000254625901992587
107.049025014262 0.000316959184328549
107.072874589208 0.000412125743710982
108.044314035395 0.00032471541870313
108.080797960228 0.0046901835851723
109.052238121444 0.00542535831350751
109.064658838004 0.00028956911479592
110.060007671409 0.000412743492605249
110.096644039758 0.000125584080125319
111.080599677897 0.000246828635035413
112.03946961027 0.000657655058475295
112.07559478939 0.000414198440717476
113.060022306144 0.0154182266458312
118.065047453876 0.000544121104326616
119.049115797104 0.000166937335714836
120.08088903413 0.00223264970873362
121.064796988574 0.0346829302262065
121.088599705232 0.035199192986102
122.096412671189 0.0738694707773264
123.067626589115 0.000513444661260914
123.080413399054 0.00772109455516706
124.083828714644 0.000673688815916366
126.054888519373 0.0259007823690259
126.091482452722 0.00112916436651271
128.070645442158 0.0163608341970542
131.070395849737 0.0033065224921917
132.042083740234 0.227357584397392
132.080876643923 0.000336242049645714
134.060006982187 0.000258799655574135
134.096451598851 0.00983457873566652
135.091933481771 0.000560725228119038
136.075620285758 0.0133807332100565
138.091861915569 0.000416091401558906
140.070710590423 0.00306338832638382
146.060468499496 0.000461460926332648
146.096326526434 0.000467157271247826
147.067515122262 0.000391115070333997
147.091669728737 0.000290489670696419
148.07559782035 1
149.059681976503 0.0391966123450643
150.091534586071 0.000152258057098515
153.091071006529 0.00416468061806375
154.0863365771 0.00783975476696298
157.088969922508 0.000149645774904267
158.096346385015 0.000332697641708006
159.104439173884 0.000264350355001066
160.112196099381 0.000914632679036011
161.08347096101 0.00197959776279609
161.107472790403 0.000158439393686639
161.119939093284 0.000927520192576891
162.0787150117 0.000723057981588403
162.127710452595 0.0003472177946237
163.075323368471 0.00275228897172929
163.099150502846 0.000910245286958863
164.070575798747 0.00351107086126762
165.079253160355 0.000758913624495551
166.061700359793 0.000141866643003268
167.070256723426 0.00665883515874073
171.104586176329 0.000401884629947778
172.112147673833 0.00212013809819689
174.090970431902 0.000475699851344562
174.128155792208 0.000743291000078758
175.086414501982 0.00223058112843869
175.099506432011 0.000225428932415528
176.107091456881 0.0060734468443386
177.115134966727 0.00235139418201958
178.122568259981 0.036508041019227
181.085937259085 0.00795842547749821
182.080990387442 0.00781200704473251
184.112294967923 0.000402798459195394
185.120145067538 0.000690703050281828
186.127674326614 0.0020919509472041
187.060775756836 0.0290359525359814
187.136243395351 0.000780463183488389
188.107001196361 0.00038127438076368
188.143240634803 0.000291013811489151
189.101655076097 0.000233496355205834
192.1019051081 0.0266825096669416
193.096891273442 0.0149183395201038
196.112268081672 0.000177601327238253
198.127518722148 0.000268556342703235
199.096588134766 0.40931382393026
199.135603902482 0.00069055737788697
200.10706544257 0.00140249313490418
200.14367150381 0.000763524180008783
201.115280935881 0.000530249077869614
201.138627072828 0.000244162727964373
202.122779196817 0.000187519669289465
209.119641494216 0.000826109227508892
210.128092459547 0.000413728247680875
211.135658136577 0.00173459767417409
212.106800798378 0.000286077659069715
212.141575986967 0.000273043343056292
213.114747816011 0.000111158201249796
214.122665448981 0.00177286823927986
214.146988317047 0.000174990390374582
214.158859830521 0.00288696597959657
215.117629033672 0.00112276209973726
215.130126142101 0.00145233074468307
217.146222619058 0.000420833261336437
224.131803040218 0.000174427127368676
224.143652207153 0.00489493631108606
225.15123524262 0.001151361029513
226.123241186245 0.000201202770973563
226.147044990709 0.000214434473889218
226.158948665509 0.00589513172359018
227.118606523677 0.000161457481396081
227.130722052786 0.000845471332797033
228.126240275922 0.000152186983284141
228.138208812585 0.00626287140831084
229.132836519515 0.00181962870133699
229.169701923092 0.000215784122977197
230.105009056923 0.000258764246473353
237.114903031841 0.000421773620503028
239.154176053521 0.000722588299777421
240.138260295229 0.00031805646285362
240.159820913253 0.000232837170129801
241.17025704353 0.000222528345878665
242.153839079953 0.0268813084110656
251.11732269831 0.000121001453674862
251.130826734974 0.00025860116550083
252.125379879993 0.000705086948116701
252.138165755636 0.00699947968054033
255.125685517574 0.000536313935736397
255.149275602479 0.000123737358295814
256.15693530709 0.000412758425774652
257.165052640651 0.0020725861512548
267.149300202766 0.00355466086347417
268.134077122289 0.000142014804259694
268.155805752092 0.0013648944817017
270.148765150482 0.106090960574399
275.175494620832 0.00409575368248557
285.159717880247 0.190537198116693
302.162514512201 0.0015399301693568
307.141296386719 0.0426932341041742
308.148315429688 0.0698079097693652
END IONS

BEGIN IONS
TITLE=msLevel 2; retentionTime ; scanNum 
msLevel=2
SCANS=217
centroided=TRUE
PEPMASS=371.0349
CHARGE=1+
RT=6.52
IONMODE=Positive
ADDUCT=M+H
ID=JCSGFHVFHSKIJH
SMILES=Cn1cc(c2ccccc12)C1=C(c2ccc(cc2Cl)Cl)C(=NC1=O)O
FORMULA=C19H12Cl2N2O2
FILENAME=2600129003_190420_MAS011_C11.mzXML
DrugBank.ID=Unknown
INCHIKEY=JCSGFHVFHSKIJH-UHFFFAOYSA-N
CPD=SB-216763
Status=experimental
CAS=N/A
NAME=SB-216763
MSLEVEL=2
TIC=22427364.9782715
PEPMASS_DEV=0.00101416550921836
SCAN_NUMBER=588
PARAM_SUBMIT_USER=
PARAM_SAMPLE_TYPE=
PARAM_COMMENTS=
PARAM_ALGORITHM=RMassBank
PARAM_CREATION_TIME=2021-06-27 00:42:55
DB=Inhouse
CLASS=Drug
NUM_PEAKS=59
PARAM_CONSENSUS=consensus
Superclass=Organoheterocyclic compounds
Class=Indoles and derivatives
Subclass=N-alkylindoles
89.0596625672258 0.00179736534444514
101.059769792619 0.00174118084910463
101.059769792619 0.00174118084910463
111.044148638358 0.00717654573077376
111.044148638358 0.00717654573077376
117.057218972834 0.00271852249156247
125.01526453507 0.00465402643899381
129.054468145127 0.0067379087330867
132.08077151532 0.0202653037090688
145.076076114795 0.00157838164772737
156.068621801721 0.00132921103892793
158.060060284486 0.0339696412701358
158.060060284486 0.0339696412701358
158.976288929229 0.0923583523768293
159.979874092136 0.00639513013762302
211.966865477416 0.0021484353923805
211.966865477416 0.0021484353923805
212.057197460797 0.00111997933632604
212.950614966096 0.00430029634321318
258.09127256057 0.0392096613414178
259.008016077755 0.0143492180822907
260.011612348172 0.00172007332981371
264.057706287405 0.0112871748811677
265.065270314446 0.0294721869836835
272.093987648412 0.00258129693254845
278.036552934718 0.0206124847156207
278.036552934718 0.0206124847156207
279.067221617727 0.00765683702423889
282.068348258262 0.004824002278141
283.085459238411 0.00244868299969637
284.002438395986 0.0168576735578332
284.002438395986 0.0168576735578332
289.053886161159 0.00214806974940053
290.06055158881 0.0382422570282405
292.052336606771 0.145029949512915
298.019644960521 0.0025233834157765
299.027592312669 0.00179505856456624
299.082587453687 0.00149574140358543
300.034275756679 0.389563200629958
300.089055773929 0.0727814459243091
301.097095235914 0.0705256294451668
303.032658445381 0.00232051401704178
303.032658445381 0.00232051401704178
307.063259214287 0.0159061835121457
308.070356643665 0.00978305462657703
315.046155196337 0.00559741085077327
316.030373827755 0.00232161500653302
317.047839337222 0.0329523934959305
318.05532539283 0.124899576764635
320.03412753603 0.00272558649737269
321.042476373995 0.0409808815692388
325.029350983107 0.223991087416205
328.029098384689 0.0678581333885886
335.058284535612 0.103293199019226
336.065625349089 1
343.040039622016 0.110320387617106
344.023659389241 0.015220504117959
353.024345115084 0.14038522328336
356.011461339576 0.0149437848919696
END IONS

BEGIN IONS
TITLE=msLevel 2; retentionTime ; scanNum 
msLevel=2
SCANS=220
centroided=TRUE
PEPMASS=422.1477
CHARGE=1+
RT=5.73
IONMODE=Positive
ADDUCT=M+K
ID=ZPLBXOVTSNRBFB
SMILES=CN1CCN(CC1)c1ccc(cc1N=C(c1cccc(c1)OC)O)C(=O)OC
FORMULA=C21H25N3O4
FILENAME=2600129003_190420_MAS011_C2.mzXML
DrugBank.ID=Unknown
INCHIKEY=ZPLBXOVTSNRBFB-UHFFFAOYSA-N
CPD=WDR5 0103
Status=Unknown
CAS=N/A
NAME=WDR5 0103
MSLEVEL=2
TIC=1440126.9765625
PEPMASS_DEV=0.000174324642381502
SCAN_NUMBER=494
PARAM_SUBMIT_USER=
PARAM_SAMPLE_TYPE=
PARAM_COMMENTS=
PARAM_ALGORITHM=RMassBank
PARAM_CREATION_TIME=2021-06-27 00:44:11
DB=Inhouse
CLASS=Drug
NUM_PEAKS=2
PARAM_CONSENSUS=consensus
Superclass=Benzenoids
Class=Benzene and substituted derivatives
Subclass=Anilides
82.0651848551125 0.000138443306013558
84.0808164328202 0.000324290095057587
92.0256059304893 0.000781988329618572
95.0491501264586 0.000813236213969305
96.1717129978713 0.000120787196036323
97.0760450961816 0.00062465469291841
102.091277164572 0.000751737778463541
107.049338100987 0.000199491083289052
118.065136564795 0.000219217004162216
120.021126429604 0.00011372370209542
121.064813983369 0.00254311541441458
125.059713549128 0.00982662626031417
126.06340306186 0.000626429406714255
135.043904712957 0.5
136.047306386523 0.0429112048649017
137.047717367657 0.00151881866730326
147.080444812604 0.00363886686730104
148.079813392036 0.000983782248575
149.023016297929 0.000146979160958757
159.080878733283 0.000197595371703149
159.138092041016 1
164.106314011873 0.000111415788189721
165.066216811756 0.000126691651057537
176.107330199194 0.000271823675532353
177.065579104078 0.00022610439285167
179.070815459685 0.000153190674158278
185.070590158486 0.00137586737706513
188.107221599596 0.000204498226275543
189.065718021653 0.00226533419725511
189.126035075668 0.000325539625052238
191.081535249516 0.00418417200591063
191.125648908269 0.0006153392500918
192.101948234977 0.00106092735528757
200.107055982344 0.000244717829051622
201.114046328718 0.000120933055568772
202.122880185422 0.000376204157359528
203.081546576645 0.000318625077854748
205.097137882548 0.000970920987359854
216.113418858035 0.00305047750733713
217.097526265453 0.00353435913869157
218.129089766824 0.0114798966339107
219.113273953007 0.000158035880252812
230.093509039376 0.001080982474265
232.109197329542 0.00141092162847842
233.115897759248 0.000185303350430185
234.113244736259 0.000132549343035398
244.108622336571 0.00293740886815725
245.116637271222 0.0309706617547027
247.133720336094 0.000168164900109551
248.14011811888 0.0254333151321636
252.065549515554 0.000600705154252699
295.107832559241 0.0031409538472062
307.107498869777 0.000465067392215339
307.167404256272 0.000316458661118181
308.115758750114 0.00300565275521849
309.123377870347 0.00806657501633951
323.099914550781 0.399009950327856
323.139212158909 0.00224333440382418
325.180303678054 0.000448237409451929
327.133170163553 0.0011615874943654
335.099731445312 0.5
335.140410713894 0.000195655544320009
349.115661621094 0.340724489206864
350.162428777938 0.000146679776065669
351.158335390578 0.000270128602830913
352.165808252896 0.00449813569349267
353.148867279622 0.000157109224799879
366.18102845926 0.11378422673817
END IONS

BEGIN IONS
TITLE=msLevel 2; retentionTime ; scanNum 
msLevel=2
SCANS=222
centroided=TRUE
PEPMASS=483.2867
CHARGE=1+
RT=5.44
IONMODE=Positive
ADDUCT=M+H
ID=FDVSOQRNTAPCHB
SMILES=CN1CCN(CC1)[C@H]1CC[C@@H](CC1)n1cc(c2ccc(cc2)Oc2ccccc2)c2c(N)ncnc12
FORMULA=C29H34N6O
FILENAME=2600129003_190420_MAS011_C4.mzXML
DrugBank.ID=Unknown
INCHIKEY=FDVSOQRNTAPCHB-YHBQERECSA-N
CPD=A 419259 trihydrochloride
Status=Unknown
CAS=N/A
NAME=A 419259 trihydrochloride
MSLEVEL=2
TIC=311804066.40625
PEPMASS_DEV=0.000859512049609119
SCAN_NUMBER=485
PARAM_SUBMIT_USER=
PARAM_SAMPLE_TYPE=
PARAM_COMMENTS=
PARAM_ALGORITHM=RMassBank
PARAM_CREATION_TIME=2021-06-27 00:44:44
DB=Inhouse
CLASS=Drug
NUM_PEAKS=10
PARAM_CONSENSUS=consensus
Superclass=Benzenoids
Class=Benzene and substituted derivatives
Subclass=Diphenylethers
81.0698767081 0.000302447162558219
101.1073248361 0.00166847681145677
107.2243659681 0.000275996106741074
142.0597602321 0.000186184917828247
181.1699250921 0.147701188447824
303.1240375201 0.00462813597471533
304.1246519321 0.000723298688304524
383.1866377761 1
385.1897117761 0.0331780082717784
482.278564453125 0.000374726149054739
END IONS

BEGIN IONS
TITLE=msLevel 2; retentionTime ; scanNum 
msLevel=2
SCANS=226
centroided=TRUE
PEPMASS=488.1805
CHARGE=1+
RT=4.91
IONMODE=Positive
ADDUCT=M+Na
ID=WDENQIQQYWYTPO
SMILES=CC#CC(=O)N1CCC[C@H]1c1nc(c2ccc(cc2)C(=O)Nc2ccccn2)c2c(N)nccn12
FORMULA=C26H23N7O2
FILENAME=2600129003_190420_MAS011_C8.mzXML
DrugBank.ID=DB11703
INCHIKEY=WDENQIQQYWYTPO-IBGZPJMESA-N
CPD=acalabrutinib
Status=approved; investigational
CAS=N/A
NAME=acalabrutinib
MSLEVEL=2
TIC=808078.4375
PEPMASS_DEV=-0.000702218161503401
SCAN_NUMBER=443
PARAM_SUBMIT_USER=
PARAM_SAMPLE_TYPE=
PARAM_COMMENTS=
PARAM_ALGORITHM=RMassBank
PARAM_CREATION_TIME=2021-06-27 00:47:56
DB=Inhouse
CLASS=Drug
NUM_PEAKS=5
PARAM_CONSENSUS=consensus
Superclass=Organoheterocyclic compounds
Class=Azoles
Subclass=Imidazoles
99.1105880737305 0.182473486239189
121.051339039204 0.00311204376402951
136.0756903601 0.875387090236288
137.0781499481 0.0742820331749749
184.030357843543 0.00248156146949613
207.04133605957 0.484402342222711
223.09703878619 0.00395144807104972
224.081124895787 0.00333684034607084
238.084911277929 0.00109686060700383
244.131568714251 0.0193095771452645
261.116082475961 0.030579521199301
273.11389926615 0.0023693169125642
277.133650783512 0.0138819497069497
286.109888979589 0.00485777413394654
287.130566644141 0.00574568347541832
288.136626910897 0.00118455638182642
289.108692577258 0.0143705477612054
299.129743343055 0.0053000916299982
300.13707883092 0.00283461883745142
301.144383264463 0.00218948960541461
302.148238951942 0.00105738306230856
303.086456146261 0.00484242611920607
304.119025482044 0.0113194257667554
309.1220261401 0.0064111581381683
313.118509400347 0.00637754477095169
315.123552669393 0.0275041542809688
316.126180304898 0.00208616996585913
326.137597128361 0.00193129687557759
327.122154193341 0.00373716814548819
332.1307999321 0.0300223241315884
333.133461364958 0.00459465606266101
345.1512010281 0.0180869283193139
347.167324347352 0.000937909206534325
365.15904856235 0.00104888523939238
370.154639413387 0.00356989649431108
372.1455012361 1
374.150377923092 0.0246855469422198
377.1410302681 0.0137958626006524
383.161497868705 0.122939287029944
390.1587459961 0.555291412313721
447.153930664062 1
448.188568115234 0.0802207389481547
END IONS

BEGIN IONS
TITLE=msLevel 2; retentionTime ; scanNum 
msLevel=2
SCANS=228
centroided=TRUE
PEPMASS=432.175
CHARGE=1+
RT=6.98
IONMODE=Positive
ADDUCT=M+Na
ID=BYWWNRBKPCPJMG
SMILES=CCCCCCCCCCCCc1ccc(cc1)S(=O)(=O)Nc1nncs1
FORMULA=C20H31N3O2S2
FILENAME=2600129003_190420_MAS011_D1.mzXML
DrugBank.ID=Unknown
INCHIKEY=BYWWNRBKPCPJMG-UHFFFAOYSA-N
CPD=PHT-427
Status=experimental
CAS=N/A
NAME=PHT-427
MSLEVEL=2
TIC=173417.455322266
PEPMASS_DEV=0.000687663004883282
SCAN_NUMBER=610
PARAM_SUBMIT_USER=
PARAM_SAMPLE_TYPE=
PARAM_COMMENTS=
PARAM_ALGORITHM=RMassBank
PARAM_CREATION_TIME=2021-06-27 00:50:00
DB=Inhouse
CLASS=Drug
NUM_PEAKS=3
PARAM_CONSENSUS=consensus
Superclass=Benzenoids
Class=Benzene and substituted derivatives
Subclass=Benzenesulfonamides
81.069854155156 0.0653716739383753
83.0855333057048 0.0196095523464268
85.0647252008451 0.0021791354842508
85.1012093690608 0.0146600973304535
87.0262873266768 0.00140145382776125
91.054286843772 1
92.0576547301552 0.0676858970833368
93.0653950193555 0.00481582177447846
95.0855912653533 0.0647285466440186
96.0888664066072 0.00449086632758744
97.1012461005501 0.0221779736510053
99.0804882754104 0.00195291379092976
101.004345831608 0.00157047522681522
101.042180432415 0.000847674629859581
102.012255437209 0.00168576043712264
105.070062279557 0.208769819623898
106.073424709853 0.0163066797824005
107.049339570442 0.00490459393268668
107.08119646505 0.00335555227497071
109.101408593707 0.0229003661007036
110.104665511779 0.00120725374742528
111.026667222509 0.00129724178487566
111.117203411368 0.00571085039468094
115.054294988632 0.00175153623479422
116.062235387943 0.00203956987988639
117.067833156147 0.0147287625927518
118.07329671118 0.00135435705927538
119.085686351498 0.0854528718798542
120.089058838998 0.00654909543040358
121.064975081636 0.000782092137786678
121.101336639077 0.00308225785743962
123.026401400956 0.221763288149635
124.029854367465 0.0144230726650978
125.00557584714 0.00401176285550489
125.022291926059 0.0063064475181558
125.097808837891 0.878389206821429
128.062153373419 0.00236051252742334
129.069981928468 0.00572843696614096
130.077808734721 0.0101928016583357
131.085729101918 0.0369958692390828
132.088828617849 0.00358929697244332
133.101359633 0.036735836796484
133.968872070312 0.870408492456559
134.104584930767 0.00365031511715196
135.026497953288 0.0370664424752097
135.96305847168 1
136.029849991527 0.00283247848217907
137.022368832023 0.00206820349872762
137.042128425797 0.0173894831259251
137.132717340063 0.00479360970708224
138.045448583565 0.00135351205001404
139.021342273012 0.284644592308276
140.02493037335 0.0204543235867374
141.069910667212 0.00309690687572131
142.077627502714 0.00375881984168125
143.085526524614 0.00904914588532709
144.09371900791 0.00497706649362205
145.101324297405 0.005730581231198
147.026340695144 0.104301303540451
147.116870075312 0.0363442921980735
148.02967305205 0.00456488394946904
148.120095970842 0.00253013468741174
149.041950060307 0.156061744737123
150.045424582613 0.00883053809735862
151.021205604262 0.00876334213059069
151.037700306849 0.00269773730121258
151.057673777916 0.0144692210685324
151.14834020493 0.000870773221813505
153.036939892077 0.0149398066396842
154.040071715591 0.000824397522131306
155.016216647108 0.0141681812000316
155.085430413525 0.00342674728915078
156.093355613354 0.00436625193826616
157.101053625703 0.00488810682465861
159.116843069393 0.00481112708638166
160.034455310659 0.000994986037132698
161.041940637377 0.129602131127403
161.132348350129 0.0130503998354799
162.045351853126 0.00608435798066587
162.135988458682 0.00123359295422096
163.05753703307 0.19803374257009
163.958227230392 0.0306320420459836
164.061253950068 0.0215638088112331
165.036803628741 0.02553037396359
165.052977852431 0.00375330834012856
165.073073562538 0.0057304314301703
165.953271872901 0.000726808379878069
166.039849766005 0.0014068331722872
167.052554858805 0.00665904108167739
169.031746619946 0.0200369108071645
169.100731237564 0.0112404796015311
170.035143935549 0.00144074200145266
170.109102883684 0.0127442715754884
171.117214981292 0.00401975247428952
173.132156730307 0.00248265883237598
175.057452377073 0.10918768713435
175.148195766488 0.00679210936918094
176.060741118694 0.00720130281199598
177.053439876697 0.00226970438988943
177.073062525515 0.0467532480903628
178.076502888019 0.00268248129470201
179.052339861792 0.0951614951670881
180.055840327086 0.00973754145883556
181.068007257693 0.00410441046662839
183.047250593373 0.00850568851447332
183.116707872034 0.0102521802947989
184.124753722743 0.0098524848598696
189.072998753494 0.0794654085251296
191.068456445085 0.0018078529451704
191.088567263911 0.0160435904301463
193.06781916127 0.0187690295047772
194.071192673407 0.00146908051572892
195.083797347697 0.00501030709949651
198.065824473673 0.000927410724344278
201.16353970168 0.00175334180422511
203.088389819594 0.0667362595882621
204.091730330171 0.00307882592627379
205.104049733309 0.00498993312184666
207.082895239582 0.0199910073439784
209.099221291103 0.00183095274798714
211.079095317734 0.00479187090808633
213.164009353476 0.00162547261566914
217.104732171144 0.0389775548601946
218.107850820277 0.00353736687206885
219.120764568107 0.000784028566891305
221.099590037238 0.00808055043016932
222.1040213115 0.00108233984253879
225.093939186814 0.00786648095601469
226.097404015796 0.000830814403105468
231.120286510848 0.0131493847565928
232.123411960294 0.000860134321689654
235.115184481096 0.00618953352438783
239.110046660784 0.00574695105851385
239.179672696137 0.00241642498260122
240.187381365796 0.00314234502162737
249.130980961857 0.00309836060301555
253.125416258854 0.00936365815941856
267.141203470509 0.00581926205575422
271.151926010252 0.00217702166374443
273.167372484673 0.0629851588240176
274.170548367352 0.00504919205587202
291.177983390025 0.0197443455944942
292.180905428359 0.00309633223482752
304.209511666828 0.0171065937449933
305.212961525187 0.00330492411158816
309.188614496462 0.0304448772515572
310.191545754145 0.00661981051045969
346.232004244103 0.00161997287678375
END IONS

BEGIN IONS
TITLE=msLevel 2; retentionTime ; scanNum 
msLevel=2
SCANS=230
centroided=TRUE
PEPMASS=292.1056
CHARGE=1+
RT=4.29
IONMODE=Positive
ADDUCT=M+Na
ID=VAZAPHZUAVEOMC
SMILES=CC(=Nc1ccc(cc1)C(=O)Nc1ccccc1N)O
FORMULA=C15H15N3O2
FILENAME=2600129003_190420_MAS011_D10.mzXML
DrugBank.ID=DB12291
INCHIKEY=VAZAPHZUAVEOMC-UHFFFAOYSA-N
CPD=tacedinaline
Status=investigational
CAS=N/A
NAME=tacedinaline
MSLEVEL=2
TIC=487711.260009766
PEPMASS_DEV=-0.00109963384484377
SCAN_NUMBER=369
PARAM_SUBMIT_USER=
PARAM_SAMPLE_TYPE=
PARAM_COMMENTS=
PARAM_ALGORITHM=RMassBank
PARAM_CREATION_TIME=2021-06-27 00:50:19
DB=Inhouse
CLASS=Drug
NUM_PEAKS=1
PARAM_CONSENSUS=consensus
Superclass=Benzenoids
Class=Benzene and substituted derivatives
Subclass=Anilides
92.0497347776063 0.000570753365904069
94.0611471576239 0.00017318729856458
111.068229675293 1
119.036970036678 0.000529012204894642
120.0443902321 0.165320469796073
121.0284058201 0.071292352590467
133.039552466954 0.000173659741935105
136.075927717288 0.00026652117378376
162.0549549161 1
164.0620516761 0.0049674438412058
252.1131384881 0.00455491987548997
END IONS

BEGIN IONS
TITLE=msLevel 2; retentionTime ; scanNum 
msLevel=2
SCANS=232
centroided=TRUE
PEPMASS=332.2009
CHARGE=1+
RT=7.54
IONMODE=Positive
ADDUCT=M+H
ID=JSASWRWALCMOQP
SMILES=CC(C)N(CCC(=O)c1ccc2ccccc2c1)Cc1ccccc1
FORMULA=C23H25NO
FILENAME=2600129003_190420_MAS011_D12.mzXML
DrugBank.ID=Unknown
INCHIKEY=JSASWRWALCMOQP-UHFFFAOYSA-N
CPD=ZM-39923
Status=experimental
CAS=N/A
NAME=ZM-39923
MSLEVEL=2
TIC=56326103.9731445
PEPMASS_DEV=0.00133139541061582
SCAN_NUMBER=668
PARAM_SUBMIT_USER=
PARAM_SAMPLE_TYPE=
PARAM_COMMENTS=
PARAM_ALGORITHM=RMassBank
PARAM_CREATION_TIME=2021-06-27 00:50:56
DB=Inhouse
CLASS=Drug
NUM_PEAKS=6
PARAM_CONSENSUS=consensus
Superclass=Benzenoids
Class=Naphthalenes
Subclass=
91.0543975830078 0.156674565803703
105.07022857666 0.000141354347211325
120.080986022949 0.00905021801270036
133.101043701172 0.000491570835876142
155.049194335938 0.000402013765862108
162.127548217773 1
END IONS

BEGIN IONS
TITLE=msLevel 2; retentionTime ; scanNum 
msLevel=2
SCANS=235
centroided=TRUE
PEPMASS=418.1891
CHARGE=1+
RT=5.68
IONMODE=Positive
ADDUCT=M+K
ID=YAMSXCOVJUUMCT
SMILES=CN1CCN(CC1)C(=O)CN[C@@H]1C[C@H]1c1ccc(cc1)OCc1ccccc1
FORMULA=C23H29N3O2
FILENAME=2600129003_190420_MAS011_D3.mzXML
DrugBank.ID=Unknown
INCHIKEY=YAMSXCOVJUUMCT-FCHUYYIVSA-N
CPD=RN 1 dihydrochloride
Status=Unknown
CAS=N/A
NAME=RN 1 dihydrochloride
MSLEVEL=2
TIC=955289.966064453
PEPMASS_DEV=0.000185061534723925
SCAN_NUMBER=502
PARAM_SUBMIT_USER=
PARAM_SAMPLE_TYPE=
PARAM_COMMENTS=
PARAM_ALGORITHM=RMassBank
PARAM_CREATION_TIME=2021-06-27 00:52:22
DB=Inhouse
CLASS=Drug
NUM_PEAKS=4
PARAM_CONSENSUS=consensus
Superclass=Organic acids and derivatives
Class=Carboxylic acids and derivatives
Subclass=Amino acids, peptides, and analogues
82.0650845589383 0.000848977641578583
83.0605129586636 0.0005784638597921
84.0682703553624 0.0085045370171882
85.0758521991083 0.000569288932255105
86.0598592061743 0.000525465396146013
86.0965794147967 0.00180069969440443
91.0541963625924 1
92.0575742812699 0.0772822335330568
96.0443000421066 0.000416493097991045
97.0760673312096 0.0148494332867294
98.060173080946 0.0003375057681968
98.0837631411215 0.00292253985172093
99.0916901425078 0.245985752071299
101.107323942553 0.193762455509937
102.104234801847 0.00112705108779559
105.070076076411 0.000624126405547838
107.048945189522 0.000970254716702849
108.080601064709 0.000373050315822306
111.091703559555 0.00508846587973701
113.071138406167 0.000351461981546142
113.107233216163 0.00111836517747162
117.069877594165 0.000829521478058787
118.064665231436 0.000398791063366538
119.085544051355 0.00418380976374247
121.069243623541 0.58248384035655
122.045082092285 0.0671812654173578
123.052833557129 0.0569128472105589
123.089309692383 0.0536307115362527
125.070994742663 0.000851640097132618
125.107470803243 0.000562146964682627
127.086500081477 0.00107290691725477
129.031219482422 0.106231467378396
129.069816774106 0.000920844737084268
131.049259444242 0.000762628042745362
131.085468497879 0.000808368872302871
132.080797274462 0.00104478030959282
133.06485077191 0.000460704644685035
133.088623927741 0.00149408989665666
134.058722338067 0.0475904635723331
134.096311204243 0.00191901583865555
135.053024291992 0.187916992096332
136.06086730957 0.111174411243883
139.086577046712 0.0209274826522626
141.069781926321 0.00108435423737658
141.10234402827 0.00143893558653513
143.085519464597 0.000323652357311862
143.13883972168 0.0111520337252663
144.080786076615 0.000351251062407945
145.064699049819 0.00104027224744255
146.060072156554 0.000898628629755424
146.096571081926 0.000621594422996755
147.080731547591 0.000762678032963347
148.075632550041 0.00792421245111525
148.112055158903 0.000685303364145462
149.068511962891 0.0663124812908066
150.076721191406 0.0804492627437738
150.091219802968 0.000541887146104206
153.102226990373 0.000529948023390651
155.085463368975 0.00176838504994664
156.113030882541 0.0124016072885379
158.128739730705 0.00724643422736414
159.11653173764 0.000287277088809564
160.075638746307 0.0146111479492595
161.083650885552 0.0185519885413249
163.084091186523 0.0679614207070924
164.092071533203 0.0366525703993996
165.052597045898 0.0130826640865779
167.085444602165 0.000596975743277899
168.11301316601 0.000820345487679915
169.101456840076 0.00170403576489131
170.128702560819 0.00706383535394909
174.091497595655 0.000432347253736681
176.07023342043 0.000289620343627868
177.099761962891 0.0147131237859184
178.134120256212 0.000642611571387809
179.085495002845 0.000621269193382096
180.111114501953 0.0444239670615868
181.101372461078 0.000362739027069162
182.12870383899 0.00180779595977616
183.080594092957 0.000916380288100716
183.117032100721 0.000442071743824026
184.144467383476 0.000999086684874576
185.081069946289 0.0390338470580305
189.078372504124 0.00189403187117816
189.138461426569 0.00139944287453072
192.106239318847 0.28509440092653
195.117360570881 0.000373317822128075
196.144411531427 0.0105276033165104
204.110809326172 1
205.118850708008 0.929178125757961
206.126327514648 1
207.116746477538 0.00163587212358455
208.119798786246 0.000337038777465453
210.121856689453 0.100849086872722
211.111881677533 0.00207014183838016
216.101939959053 0.00047376396608825
219.077987670898 0.0588899691435952
223.111604197601 0.00348829718031386
224.143587615323 0.00202211619198278
225.127093963733 0.597523748361752
229.09489440918 0.0542914514715501
235.111481746912 0.00847746430887255
238.121687111039 0.000437438596179636
239.130679230783 0.00469182853716216
241.094741821289 0.286020160733892
242.102294921875 0.104485056633104
250.122882136442 0.00179826263462797
252.138123612343 0.134188123488554
254.126617431641 0.0129672738291776
254.154055436392 0.0636867144129601
260.143644045135 0.00055536046274375
262.122389583837 0.000555190004896356
271.170066240882 0.00054524074207668
274.120452880859 0.284747583367276
274.191938872752 0.00219638795583198
280.133341622456 0.0615438140845861
282.139444195945 0.000996708264649999
282.15869140625 0.0601693429016143
289.177772924822 0.00150356619484064
296.136779785156 0.0280010839189955
302.114929199219 0.331057197985143
306.147743610858 0.000327167761797827
310.152984619141 0.0443987325909496
311.160888671875 0.0732670318819856
312.167388916016 0.016466335557044
323.175667022768 0.00456332904833017
323.211586227922 0.000765321210764698
337.191266332609 0.00201363881856521
347.080397175683 0.00125056570162102
349.19114555602 0.00407906427778702
362.22294437959 0.0112556567464682
401.205657958984 0.022435789418032
END IONS

BEGIN IONS
TITLE=msLevel 2; retentionTime ; scanNum 
msLevel=2
SCANS=237
centroided=TRUE
PEPMASS=491.2516
CHARGE=1+
RT=4.94
IONMODE=Positive
ADDUCT=M+Na
ID=YKNAKDFZAWQEEO
SMILES=CCC(=O)N1CCOc2c(cc(cc2OC[C@H]2CCCN(C)C2)c2ccc(c(c2)OC)OC)C1
FORMULA=C27H36N2O5
FILENAME=2600129003_190420_MAS011_D4.mzXML
DrugBank.ID=Unknown
INCHIKEY=YKNAKDFZAWQEEO-IBGZPJMESA-N
CPD=I-CBP 112
Status=Unknown
CAS=N/A
NAME=I-CBP 112
MSLEVEL=2
TIC=5256494.20117188
PEPMASS_DEV=-0.000660372868429309
SCAN_NUMBER=431
PARAM_SUBMIT_USER=
PARAM_SAMPLE_TYPE=
PARAM_COMMENTS=
PARAM_ALGORITHM=RMassBank
PARAM_CREATION_TIME=2021-06-27 00:52:52
DB=Inhouse
CLASS=Drug
NUM_PEAKS=3
PARAM_CONSENSUS=consensus
Superclass=Organoheterocyclic compounds
Class=Benzoxazepines
Subclass=
84.0807759869946 0.00490343739166847
96.0807697534541 0.00168652580617701
98.096446232602 0.0023422349929686
100.075684117842 0.0659611609488416
110.096426527128 0.167232334286819
112.112106358607 1
113.119877405812 0.00440000902839243
114.091347497433 0.00347792502423323
128.106990472081 0.00462847981645324
246.05227483988 0.00155369637829963
286.144732113447 0.00364152449295108
370.201061799453 0.574907751312182
392.183044433594 0.264478287009866
413.2434839561 0.0377011227390653
454.246555179333 0.00808431379583783
476.227111816406 0.0124717231819675
END IONS

BEGIN IONS
TITLE=msLevel 2; retentionTime ; scanNum 
msLevel=2
SCANS=238
centroided=TRUE
PEPMASS=360.0342
CHARGE=1+
RT=5.89
IONMODE=Positive
ADDUCT=M+H
ID=LSPANGZZENHZNJ
SMILES=COc1cc2c(cc1OC)ncnc2Nc1cccc(c1)Br
FORMULA=C16H14BrN3O2
FILENAME=2600129003_190420_MAS011_D5.mzXML
DrugBank.ID=Unknown
INCHIKEY=LSPANGZZENHZNJ-UHFFFAOYSA-N
CPD=PD-153035
Status=experimental
CAS=N/A
NAME=PD-153035
MSLEVEL=2
TIC=31847453.7304688
PEPMASS_DEV=-0.000191951929495085
SCAN_NUMBER=512
PARAM_SUBMIT_USER=
PARAM_SAMPLE_TYPE=
PARAM_COMMENTS=
PARAM_ALGORITHM=RMassBank
PARAM_CREATION_TIME=2021-06-27 00:53:26
DB=Inhouse
CLASS=Drug
NUM_PEAKS=33
PARAM_CONSENSUS=consensus
Superclass=Organoheterocyclic compounds
Class=Diazanaphthalenes
Subclass=Benzodiazines
161.058388958006 0.00609170393281378
164.070542425986 0.00962184224729273
170.967725823322 0.00232285216049246
171.975215202715 0.00289693105707612
174.0423788521 0.0468452542091926
175.050524329514 0.00525333937843083
178.073740006566 0.00538697014821615
189.053415338525 0.00631770236394515
189.066141132642 0.00688999044407466
197.978606430929 0.00222829329689968
221.094655333081 0.00652719877011293
222.101551964948 0.00359910007373535
235.1103988361 0.0967560306299652
250.096525884965 0.0172672683442134
252.112697849723 0.0139938459056158
264.076186720339 0.00480900157070772
266.0924030441 0.0409028792343882
280.1080531081 0.150314999786665
281.1158781401 0.283828490634605
297.996485086494 0.0276206426378179
299.004059976396 0.0331670762938998
300.012153298102 0.00325417020385484
313.993133544922 0.00320326507755576
313.993133544922 0.00320326507755576
315.000610351562 0.0459442551405091
315.000610351562 0.0459442551405091
316.008575439453 0.175116316478908
316.008575439453 0.175116316478908
325.992034912109 0.0188290227454073
327.000366210938 0.00858888291796813
332.039916992188 0.00749069710315936
344.003479003906 0.71725554412866
345.010955810547 1
END IONS

BEGIN IONS
TITLE=msLevel 2; retentionTime ; scanNum 
msLevel=2
SCANS=241
centroided=TRUE
PEPMASS=480.1444
CHARGE=1+
RT=5.92
IONMODE=Positive
ADDUCT=M+K
ID=LTEJRLHKIYCEOX
SMILES=Cc1cc2c(ccc(c2F)Oc2c3c(C)c(cn3ncn2)OC[C@@H](C)OC(=O)[C@H](C)N)[nH]1
FORMULA=C22H24FN5O4
FILENAME=2600129003_190420_MAS011_D8.mzXML
DrugBank.ID=DB11865
INCHIKEY=LTEJRLHKIYCEOX-OCCSQVGLSA-N
CPD=brivanib-alaninate
Status=investigational
CAS=N/A
NAME=brivanib-alaninate
MSLEVEL=2
TIC=164136.245605469
PEPMASS_DEV=0.000173470288260207
SCAN_NUMBER=530
PARAM_SUBMIT_USER=
PARAM_SAMPLE_TYPE=
PARAM_COMMENTS=
PARAM_ALGORITHM=RMassBank
PARAM_CREATION_TIME=2021-06-27 00:55:58
DB=Inhouse
CLASS=Drug
NUM_PEAKS=3
PARAM_CONSENSUS=consensus
Superclass=Organic acids and derivatives
Class=Carboxylic acids and derivatives
Subclass=Amino acids, peptides, and analogues
84.0807524365199 0.00086562488095278
87.044022069103 0.25
89.0496026539925 0.000849471579477703
90.0551150846234 0.000164311062583307
100.156761169434 0.00354989283873943
108.080933766824 0.000229883902730519
112.037048339844 0.0549368344109748
116.166259765625 0.00380492224843009
122.011581420898 0.00286464913357013
123.07933807373 0.00595719950731045
130.086760786292 0.376104988450065
131.090058056082 0.0126038104843605
132.0907456535 0.000596420523500078
148.05292333388 0.00136391476436186
149.063558545077 0.0046305274016874
150.067091497082 0.000804382608294771
152.068252563477 0.0160447344495918
162.068370955991 0.000451813084096683
164.044692109553 0.000634394297423598
165.052889804894 0.000159521864860055
172.023513793945 0.466209225816943
175.065850565693 0.000225077166800697
177.089417218687 0.000141370311639197
178.072903056017 0.000270033957549148
185.136459350586 0.00674322828876745
188.081402360408 0.000146068333173165
191.105246299095 0.000128928139644116
204.076642898032 0.000959694996965996
205.084837551334 0.00193145611652583
239.144790649414 0.00326687487039394
241.078255012922 0.000163941738205325
242.085494587137 0.000590719788732785
243.089056881188 0.000353601702844899
251.093665476319 0.00170837855056372
269.082942689812 0.000723649460305313
271.09871773231 0.000286103952543016
283.099221377663 0.00232026940752265
283.175506591797 0.25
293.103481899623 0.000239827416860365
296.070980028498 0.00102018784856634
296.107448526364 0.00144961715264271
297.075618480175 0.000135134262975912
297.114558901328 0.000551489559702678
298.118373378575 0.000167162411125363
299.094477900959 0.000243661140039549
311.094170095063 0.0110052182452136
312.099998732026 0.000805552476171718
313.109306372132 0.357514783833272
314.112937743951 0.0200632085795212
315.115592553484 0.00171168840669503
325.111226348951 0.00366120863069846
325.145955345245 0.0192975629228662
326.114399957199 0.000338678549166554
326.14928154135 0.00122996055900179
333.13487571336 0.000435706602274461
334.083984375 0.0485776470841644
335.091064453125 0.0696923561281435
335.129992463567 0.000416787507226559
339.124223765838 0.000172898385832198
350.1414637827 0.000196109665656732
353.140786709105 0.270877949139379
354.145388528336 0.0242382970945016
355.146986367221 0.00085363136408125
363.124065917618 0.000107089955242301
366.136638499505 0.000383152507773522
371.151499460885 0.0515082811862901
375.122863769531 1
376.126556396484 0.0477577003614383
377.130096435547 0.0169066959583566
379.1564805201 0.000540268623315442
381.135780719777 0.000548467550919767
393.133117675781 0.104264739642502
394.1673795521 0.000346458644774816
424.177944236106 0.0041364000010675
END IONS

BEGIN IONS
TITLE=msLevel 2; retentionTime ; scanNum 
msLevel=2
SCANS=242
centroided=TRUE
PEPMASS=275.1291
CHARGE=1+
RT=5.72
IONMODE=Positive
ADDUCT=M+H
ID=XBJCNHGQFJFCOY
SMILES=c1ccc(cc1)CCN=c1c2cc(ccc2nc[nH]1)C#N
FORMULA=C17H14N4
FILENAME=2600129003_190420_MAS011_D9.mzXML
DrugBank.ID=Unknown
INCHIKEY=XBJCNHGQFJFCOY-UHFFFAOYSA-N
CPD=Senexin A
Status=Unknown
CAS=N/A
NAME=Senexin A
MSLEVEL=2
TIC=235748676.912109
PEPMASS_DEV=0.00156250542705356
SCAN_NUMBER=492
PARAM_SUBMIT_USER=
PARAM_SAMPLE_TYPE=
PARAM_COMMENTS=
PARAM_ALGORITHM=RMassBank
PARAM_CREATION_TIME=2021-06-27 00:56:14
DB=Inhouse
CLASS=Drug
NUM_PEAKS=10
PARAM_CONSENSUS=consensus
Superclass=Organoheterocyclic compounds
Class=Diazanaphthalenes
Subclass=Benzodiazines
103.0542266441 0.00737530335970135
105.0698767081 1
120.0807757401 0.00032752441795
146.0964258041 0.00302978603884519
154.040273579857 0.000293143075304646
170.095715040634 0.000294174742354852
171.0665226441 0.133593056167942
183.0665226441 0.0116969677547346
184.0743476761 0.00678750230842007
246.103225708008 0.00118706716715521
END IONS

BEGIN IONS
TITLE=msLevel 2; retentionTime ; scanNum 
msLevel=2
SCANS=245
centroided=TRUE
PEPMASS=309.1458
CHARGE=1+
RT=4.72
IONMODE=Positive
ADDUCT=M+H
ID=MFAQYJIYDMLAIM
SMILES=CC(C)n1c2c(c(c3cc4cc(ccc4[nH]3)O)n1)c(N)ncn2
FORMULA=C16H16N6O
FILENAME=2600129003_190420_MAS011_E10.mzXML
DrugBank.ID=Unknown
INCHIKEY=MFAQYJIYDMLAIM-UHFFFAOYSA-N
CPD=PP242
Status=experimental
CAS=N/A
NAME=PP242
MSLEVEL=2
TIC=72331840.2270508
PEPMASS_DEV=0.00134949491811734
SCAN_NUMBER=407
PARAM_SUBMIT_USER=
PARAM_SAMPLE_TYPE=
PARAM_COMMENTS=
PARAM_ALGORITHM=RMassBank
PARAM_CREATION_TIME=2021-06-27 00:57:30
DB=Inhouse
CLASS=Drug
NUM_PEAKS=13
PARAM_CONSENSUS=consensus
Superclass=Organoheterocyclic compounds
Class=Indoles and derivatives
Subclass=Hydroxyindoles
212.082709183853 0.000391363483786207
222.066494601778 0.000384493170555328
222.077191002467 0.000692883651310815
239.092677318366 0.000627975092158223
239.103800964731 0.00364851400674362
240.0879863601 0.00185601470103908
249.088338949595 0.00540366176324292
250.0723362961 0.0061139266468525
265.084501019616 0.00106414046536072
266.0910603601 0.00645350691745628
267.0988853921 1
279.099420218762 0.000848495839973783
293.114834115909 0.0011932377938085
END IONS

BEGIN IONS
TITLE=msLevel 2; retentionTime ; scanNum 
msLevel=2
SCANS=246
centroided=TRUE
PEPMASS=365.119
CHARGE=1+
RT=4.79
IONMODE=Positive
ADDUCT=M+H
ID=RXRZPHQBTHQXSV
SMILES=CC(C)(C)NS(=O)(=O)c1cc(cnc1)c1cc(c2nc(=N)[nH]n2c1)F
FORMULA=C15H17FN6O2S
FILENAME=2600129003_190420_MAS011_E11.mzXML
DrugBank.ID=Unknown
INCHIKEY=RXRZPHQBTHQXSV-UHFFFAOYSA-N
CPD=CZC24832
Status=experimental
CAS=N/A
NAME=CZC24832
MSLEVEL=2
TIC=27353836.7463379
PEPMASS_DEV=0.00204040506709888
SCAN_NUMBER=408
PARAM_SUBMIT_USER=
PARAM_SAMPLE_TYPE=
PARAM_COMMENTS=
PARAM_ALGORITHM=RMassBank
PARAM_CREATION_TIME=2021-06-27 00:57:52
DB=Inhouse
CLASS=Drug
NUM_PEAKS=10
PARAM_CONSENSUS=consensus
Superclass=Organoheterocyclic compounds
Class=Pyridines and derivatives
Subclass=Bipyridines and oligopyridines
201.058822631836 0.000454411302835433
228.068710327148 0.000913088364457296
228.068710327148 0.000913088364457296
229.075210571289 0.00812946506289716
229.075210571289 0.00812946506289716
261.064544677734 0.00043010076735861
261.064544677734 0.00043010076735861
309.055938720703 1
309.055938720703 1
311.050842285156 0.0381015194395186
END IONS

BEGIN IONS
TITLE=msLevel 2; retentionTime ; scanNum 
msLevel=2
SCANS=256
centroided=TRUE
PEPMASS=1047.6363
CHARGE=1+
RT=7.13
IONMODE=Positive
ADDUCT=M+NH4
ID=CBPNZQVSJQDFBE
SMILES=C[C@@H]1C=CC=CC=C(C)[C@H](C[C@@H]2CC[C@@H](C)[C@@](C(=O)C(=O)N3CCCC[C@H]3C(=O)O[C@@H](CC(=O)[C@H](C)C=C(C)[C@H]([C@H](C(=O)[C@H](C)C1)OC)O)[C@H](C)C[C@@H]1CC[C@H]([C@@H](C1)OC)OC(=O)C(C)(CO)CO)(O)O2)OC
FORMULA=C56H87NO16
FILENAME=2600129003_190420_MAS011_E8.mzXML
DrugBank.ID=DB06287
INCHIKEY=CBPNZQVSJQDFBE-QWRHTZMXSA-N
CPD=Temsirolimus
Status=approved
CAS=N/A
NAME=Temsirolimus
MSLEVEL=2
TIC=171688991.789062
PEPMASS_DEV=-0.000476700950018102
SCAN_NUMBER=623
PARAM_SUBMIT_USER=
PARAM_SAMPLE_TYPE=
PARAM_COMMENTS=
PARAM_ALGORITHM=RMassBank
PARAM_CREATION_TIME=2021-06-27 01:35:56
DB=Inhouse
CLASS=Drug
NUM_PEAKS=200
PARAM_CONSENSUS=consensus
Superclass=Phenylpropanoids and polyketides
Class=Macrolide lactams
Subclass=
81.0698612457408 0.0509135829405944
84.0807513106218 0.250030538951039
91.0542012599932 0.0476579559270817
93.0698596165462 0.064513118059591
95.0855032188411 0.107917471466439
97.0647781888873 0.0455628768144924
105.069851379158 0.109059657355318
107.085509015339 0.11790065135153
109.064904502412 0.0503983090528139
109.101159530004 0.0405499045720175
111.080418293151 0.139074165136691
119.085535396091 0.10747993425314
121.101196951672 0.0785745868965433
123.080511142383 0.0496048858127894
125.09613606003 0.0442490789588095
128.07069077507 0.0525027988106354
130.086295661319 0.401980668868578
131.085394439197 0.0534944082926402
133.101185189774 0.22846576861769
135.080446125498 0.0576021701444054
135.116823029141 0.0507533738532261
145.049550027675 0.05686556664051
145.101185878493 0.13631872577943
147.116830119307 0.293186918510282
149.096128653562 0.0709005068259706
149.132520978277 0.0443018686028466
157.101207921037 0.152753715072793
159.116880818577 0.109822363689654
161.096167093874 0.068400049114187
161.132483217173 0.0601250077940101
163.111822108969 0.064680039911674
165.127450663672 0.0597980806403476
171.116965524106 0.0651577138006307
173.09624162052 0.0417013277361287
173.132588410725 0.0593130826293097
175.11186411261 0.327741785832525
177.127586086584 0.0582168793308065
179.14318597239 0.0489485556602093
183.117127081208 0.0394274554888637
185.132730107083 0.0885236767649035
187.112028318891 0.0383878559743851
189.127679362351 0.0416307235642554
193.122560048974 0.0466165375483985
199.148408618999 0.0933034207344606
201.127597056004 0.0428848213085556
203.143332675549 0.0576086547906998
205.1199005161 0.0278582179780079
207.138216223988 0.0532615389260369
209.0420441201 0.0284516048922962
209.132716001574 0.038432734471606
211.111957491845 0.0778378434800168
213.127679236 0.0509129746248069
213.163994961152 0.114449517727081
215.14330827173 0.0515289217338355
217.158905976939 0.105704941783183
227.143262544405 0.0850877388688255
227.17960873938 0.10699173650106
237.163899924531 0.0902601080970924
241.195074494653 0.442175353519658
243.174353261737 0.0790612516928389
245.114748656354 0.0204683457146762
251.179324290968 0.149643116626172
255.174208862244 0.192538370550483
265.15855329795 0.0914117532964661
269.189763969856 0.212800639452323
273.184535717095 0.695215255003966
273.220301952416 0.0891571038280853
274.188065441711 0.134977000145944
285.182368252408 0.102971879709104
287.199948523248 0.129060143641176
293.153187872519 0.0839786149429964
301.215285351267 0.111165476283135
305.210444065985 0.156349992844134
306.169477292522 0.0792783717637044
307.204833936454 0.0925348989011965
317.189413028723 0.169386333999191
320.11017055066 0.16225455818212
321.184139838459 0.178954922342486
327.192844066572 0.0943104659804242
334.16399570138 0.197390978585064
335.19965541583 0.193906022602831
345.183787094315 0.174058272244892
349.178688972288 0.114829994919514
352.173514253038 0.111772052287458
363.194084939138 0.178745077728439
367.225235962733 0.160388978512967
377.20928386398 0.155286596016049
381.23969920755 0.241738460426798
382.242751163174 0.0662375379516573
395.219510322954 0.223387013105958
409.234699845619 0.811861556729121
410.237782318828 0.197006129580757
417.260881206367 0.0908883097276598
421.255884791606 0.264126286382616
427.245567655347 0.201151050632095
428.247978741704 0.0750607855761611
435.270538066894 0.154080622133696
436.27652794017 0.163199677276363
439.266238483571 0.0702600902143908
441.260798690769 0.408036609284194
442.264003234313 0.168281239490169
446.26586772426 0.0831108646384793
450.260985235104 0.0814850007838219
453.224546167321 0.649712995772254
454.227903298787 0.231288723006234
457.254423671037 0.0524488690959459
459.271269771903 0.0941570574429602
461.250548726689 0.740009196330459
462.254149998827 0.690661039433379
463.257354542372 0.0572317799209949
464.276067716809 0.0756456315440625
471.235475012217 0.0838694163275602
474.260230528713 0.0978620297489549
478.255614844619 0.17470745468697
485.250126213541 0.0469090957202958
492.27027309248 0.357600966260724
493.273756566656 0.16469925477354
496.264706344306 0.208907436661958
503.26041418917 0.0716404897515346
506.285649977598 0.16741010458358
510.280659125129 0.314647971001866
524.295896260094 0.59420888353166
525.299285932784 0.213830907402622
542.307889793971 0.175006612224934
564.292896928484 0.209199960589616
565.295765778603 0.0877858219054559
568.341890018099 0.383125324886326
569.345031086882 0.0790896235411667
570.343862477261 0.0364879864859243
582.303337492034 0.641940684099159
583.30736601035 0.264910087955951
590.329767297578 0.183542108178232
596.32000285391 0.141930898249295
614.32971099544 1
615.332955579255 0.30302554793654
616.336740569827 0.0417033842375516
618.323741686701 0.117311979589796
697.3901507736 0.0708131184840127
723.444371039678 0.803151827385273
724.448094995045 0.379926254955042
758.372682947151 0.203862140133715
764.453677026233 0.13116333768637
772.427937698246 0.0992899050642629
796.479749627134 0.162370074454878
814.490350487159 0.129001806157157
815.492794249638 0.155459236036534
819.499990628279 0.0988314640242877
820.503714583647 0.0584673686153304
846.517221779323 0.121297161259843
847.496900451997 0.226503684646994
848.501723041064 0.132421657435743
865.507657189089 0.0703244436620549
866.513029095007 0.024415875731721
879.523415581724 0.106092273954189
880.529458874903 0.0623745912120011
891.485278272195 0.0994374035248696
892.493579867979 0.057771059374982
909.499391945592 0.0905355932352283
910.49927068301 0.0251071426756671
912.527766097106 0.236483346363976
913.531186724177 0.197925888906464
918.534189283217 0.3603905658637
919.53742495694 0.210597259376394
920.536876447919 0.0457125387332335
930.538129189775 0.812822795476459
931.541488832884 0.490246851643801
934.546775460819 0.0528124998116035
944.553670221809 0.174290004060973
945.55690783332 0.111741356672822
948.548676299144 0.41855279687307
949.551974956953 0.241382940709981
962.564401128727 0.672706743557929
963.56769982446 0.419110646782816
964.57124266418 0.0663429501977887
966.574145083424 0.0657193077638371
980.574583580615 0.740009196330459
981.577943358592 0.472064730743547
984.583986292433 0.0800545873867995
1002.55897639907 0.0149873224261191
1020.5654916561 0.102507326361129
1021.56896972656 0.0579090315147858
END IONS

BEGIN IONS
TITLE=msLevel 2; retentionTime ; scanNum 
msLevel=2
SCANS=259
centroided=TRUE
PEPMASS=524.2744
CHARGE=1+
RT=5.23
IONMODE=Positive
ADDUCT=M+Na
ID=OBWNXGOQPLDDPS
SMILES=CCc1cccc(CC)c1N=C(N1Cc2c(C1)[nH]nc2N=C(c1ccc(cc1)N1CCN(C)CC1)O)O
FORMULA=C28H35N7O2
FILENAME=2600129003_190420_MAS011_F1.mzXML
DrugBank.ID=Unknown
INCHIKEY=OBWNXGOQPLDDPS-UHFFFAOYSA-N
CPD=PHA-680632
Status=experimental
CAS=N/A
NAME=PHA-680632
MSLEVEL=2
TIC=3592526.75
PEPMASS_DEV=-0.000656162675929548
SCAN_NUMBER=463
PARAM_SUBMIT_USER=
PARAM_SAMPLE_TYPE=
PARAM_COMMENTS=
PARAM_ALGORITHM=RMassBank
PARAM_CREATION_TIME=2021-06-27 01:37:30
DB=Inhouse
CLASS=Drug
NUM_PEAKS=13
PARAM_CONSENSUS=consensus
Superclass=Organoheterocyclic compounds
Class=Diazinanes
Subclass=Piperazines
86.0595677990594 0.000865316007478919
95.0603417662147 0.000191358828659429
98.0837505727911 0.000190692601631446
120.080838844222 0.000398228783069197
124.050209547749 0.00182245886486411
132.080758634698 0.000614186076850895
134.035113892664 0.000333440368552525
136.050180113119 0.00665016946658978
148.111778428148 0.00322396150730256
149.115398949317 0.000204003133654536
150.127717370295 0.00623459148093277
151.06114931033 0.109367073776498
152.058416303479 0.000814839611877158
153.076885962209 0.0113787657144803
154.060891402785 0.00173920462518984
160.099527847787 0.000325137354778132
160.111775145376 0.00078126342086977
162.12782131196 0.000458941035282345
166.2490234375 0.00153666161605356
167.996200344805 0.000607339323704318
173.107187865499 0.00208236683627843
174.091060266715 0.00145138041604901
174.115507563237 0.00192923178566625
175.122921444258 0.02719101787038
176.10713815284 0.000727302621320597
176.125954119474 0.00358827414525982
177.138488439365 0.272672968693842
178.13993547072 0.0521512952509233
187.123044764837 0.000319113582415788
189.138306728392 0.0820127327941026
190.141807541393 0.0156105591251454
191.117232873476 0.366613631807597
192.120777807474 0.021205333967956
193.13306531286 0.00427511805131618
199.132507324219 0.00352649691698861
201.101501247618 0.0224783804948829
202.105092255643 0.00243961604602981
203.116923455123 1
204.120156496127 0.0939182753991299
205.096217180676 0.00127576929759901
205.123250144241 0.00235201804633396
213.100534309183 0.000209478320205986
232.144142392814 0.000909384805861265
253.107356651282 0.00195179723800079
255.123038734615 0.000761922508935772
267.123855861165 0.00827481950328056
280.1552996251 0.000807574483294054
281.159008258631 0.00028373960528263
282.134276938101 0.000222987072174703
282.158292475357 0.000320758018608018
295.141385403243 0.00203552187512979
296.113148188611 0.000208944877843339
296.149125840234 0.00137319636856465
297.151098823084 0.000231420973448657
299.167401664888 0.0291803887808907
300.169999726444 0.00344723377978866
311.167015603266 0.0454946723665758
312.180696155695 0.00906671057661337
313.18277817964 0.00438952454878774
320.147613525391 0.0497247409034461
321.150970458984 0.0054842674063008
328.193346629408 0.0976393326187692
329.196307354722 0.00824451089577963
330.209398055777 0.000429304765014886
340.193871441453 0.0012242599896985
341.172187253354 0.000529989411108001
348.142822265625 0.0112443009218688
349.174041748047 0.394816372669879
350.177215576172 0.0678265211828875
351.180145263672 0.0139780950525063
351.191257409588 0.00754485492245824
352.194054565667 0.00394920844545242
353.170407217519 0.0362269460933681
354.173195145746 0.028673865920779
355.177213737791 0.00162969257266943
364.133514404297 0.00255513775012504
426.202824344652 0.000524875968120211
459.28627027783 0.000438108969333735
486.261439818898 0.00117551068702826
502.2924998121 0.394816372669879
END IONS

BEGIN IONS
TITLE=msLevel 2; retentionTime ; scanNum 
msLevel=2
SCANS=260
centroided=TRUE
PEPMASS=376.0291
CHARGE=1+
RT=4.96
IONMODE=Positive
ADDUCT=M+H
ID=CBIAKDAYHRWZCU
SMILES=COc1cc2c(cc1OC)ncnc2Nc1ccc(c(c1)Br)O
FORMULA=C16H14BrN3O3
FILENAME=2600129003_190420_MAS011_F10.mzXML
DrugBank.ID=Unknown
INCHIKEY=CBIAKDAYHRWZCU-UHFFFAOYSA-N
CPD=WHI-P154
Status=experimental
CAS=N/A
NAME=WHI-P154
MSLEVEL=2
TIC=70169740.7851562
PEPMASS_DEV=-0.00018937172657941
SCAN_NUMBER=428
PARAM_SUBMIT_USER=
PARAM_SAMPLE_TYPE=
PARAM_COMMENTS=
PARAM_ALGORITHM=RMassBank
PARAM_CREATION_TIME=2021-06-27 01:37:51
DB=Inhouse
CLASS=Drug
NUM_PEAKS=14
PARAM_CONSENSUS=consensus
Superclass=Organoheterocyclic compounds
Class=Diazanaphthalenes
Subclass=Benzodiazines
251.1053134561 0.0512971071870391
266.0924030441 0.0236091212176036
267.101127489662 0.0192945612144037
268.1080531081 0.0259345862424734
282.0873176641 0.0349772569650826
295.093719482422 0.0292051869458052
296.102630615234 0.21100867938476
297.110534667969 0.573047847836903
330.9950900801 0.0181718568903102
330.9950900801 0.0181718568903102
332.005637516721 0.119061855395744
345.9821796681 0.0230761910857812
359.998003625607 0.642498276379371
361.0056547641 1
END IONS

BEGIN IONS
TITLE=msLevel 2; retentionTime ; scanNum 
msLevel=2
SCANS=264
centroided=TRUE
PEPMASS=404.1805
CHARGE=1+
RT=4.67
IONMODE=Positive
ADDUCT=M+Na
ID=LOLPPWBBNUVNQZ
SMILES=c1cc2c(cc1CN1CCOCC1)nc(c1c(c[nH]n1)NC(=NC1CC1)O)[nH]2
FORMULA=C19H23N7O2
FILENAME=2600129003_190420_MAS011_F12.mzXML
DrugBank.ID=DB08067
INCHIKEY=LOLPPWBBNUVNQZ-UHFFFAOYSA-N
CPD=AT-9283
Status=experimental
CAS=N/A
NAME=AT-9283
MSLEVEL=2
TIC=2000727.32788086
PEPMASS_DEV=-0.000848158557684639
SCAN_NUMBER=410
PARAM_SUBMIT_USER=
PARAM_SAMPLE_TYPE=
PARAM_COMMENTS=
PARAM_ALGORITHM=RMassBank
PARAM_CREATION_TIME=2021-06-27 01:38:46
DB=Inhouse
CLASS=Drug
NUM_PEAKS=5
PARAM_CONSENSUS=consensus
Superclass=Organoheterocyclic compounds
Class=Benzimidazoles
Subclass=
123.148829149597 0.000241428160108569
212.093084699557 0.189980761523276
213.0968740121 0.0209935660487539
214.0988311081 0.000884602521597709
214.10935968662 0.0010631001840948
238.071929538746 0.260110062116652
240.087291260877 0.00123396893044147
252.088580420904 0.000889739007012814
252.124209624799 0.000305553341133204
263.029479980469 0.00194001646305063
278.103698730469 0.0183811339332163
295.130218505859 0.915245222392312
299.161346435547 1
321.143218994141 0.0817744161744173
325.1407502041 0.673183441071865
347.122344970703 0.673183441071865
349.128448486328 0.0102572393891114
END IONS

BEGIN IONS
TITLE=msLevel 2; retentionTime ; scanNum 
msLevel=2
SCANS=266
centroided=TRUE
PEPMASS=442.1962
CHARGE=1+
RT=4.71
IONMODE=Positive
ADDUCT=M+Na
ID=XHVMFTNPPCXBQH
SMILES=C[N]1C=C(C=N1)C2=C3C=NNC(=O)C4=C3C(=CC(=C4)NC(=O)C(N)C5CCCCC5)[NH]2
FORMULA=C22H25N7O2
FILENAME=2600129003_190420_MAS011_F2.mzXML
DrugBank.ID=Unknown
INCHIKEY=XHVMFTNPPCXBQH-LJQANCHMSA-N
CPD=PF 477736
Status=Unknown
CAS=N/A
NAME=PF 477736
MSLEVEL=2
TIC=3966328.078125
PEPMASS_DEV=-0.000775694643780164
SCAN_NUMBER=399
PARAM_SUBMIT_USER=
PARAM_SAMPLE_TYPE=
PARAM_COMMENTS=
PARAM_ALGORITHM=RMassBank
PARAM_CREATION_TIME=2021-06-27 01:39:22
DB=Inhouse
CLASS=Drug
NUM_PEAKS=14
PARAM_CONSENSUS=consensus
Superclass=
Class=
Subclass=
95.0855267721 0.0144620462435057
96.0888864545462 0.00112096694209343
112.1120758681 0.192321782637239
113.115440331869 0.0144861178121023
125.059997558594 0.135737272437952
143.04768371582 0.124657446179562
162.089248657227 0.317513766148344
236.092239379883 0.000254178320150586
238.108032226562 0.000478851800767017
254.104400634766 0.00105804498626857
264.088043212891 0.00448808634188947
266.093017578125 0.000226806194181232
279.099792480469 0.000600079451370726
280.106384277344 0.00621416893065511
281.113983154297 0.672649613500707
303.09619140625 0.672649613500707
304.099334716797 0.235478726484496
307.0938000121 0.00685192563693188
309.1094500761 0.00118004401693838
313.080474853516 0.362336225100282
329.075927734375 0.260682103544982
337.127229907766 0.000683953932466427
359.111572265625 0.32946732100474
360.181621643611 0.000412070584448303
375.1927857761 0.0159892460807433
386.161705503449 0.000229543546639701
402.202294726425 0.000331111495173031
403.186997137241 1
425.168792724609 0.237281549035154
427.170867919922 0.161889974008366
END IONS

BEGIN IONS
TITLE=msLevel 2; retentionTime ; scanNum 
msLevel=2
SCANS=269
centroided=TRUE
PEPMASS=580.2939
CHARGE=1+
RT=5.61
IONMODE=Positive
ADDUCT=M+
ID=MGGBYMDAPCCKCT
SMILES=CC(C)S(=O)(=O)c1ccccc1Nc1ncnc(=Nc2ccc(cc2OC)N2CCC(CC2)N2CCN(C)CC2)[nH]1
FORMULA=C29H40N8O3S
FILENAME=2600129003_190420_MAS011_F4.mzXML
DrugBank.ID=DB12729
INCHIKEY=MGGBYMDAPCCKCT-UHFFFAOYSA-N
CPD=ASP3026
Status=investigational
CAS=N/A
NAME=ASP3026
MSLEVEL=2
TIC=13165817.8081055
PEPMASS_DEV=0.00116870228468305
SCAN_NUMBER=513
PARAM_SUBMIT_USER=
PARAM_SAMPLE_TYPE=
PARAM_COMMENTS=
PARAM_ALGORITHM=RMassBank
PARAM_CREATION_TIME=2021-06-27 01:44:22
DB=Inhouse
CLASS=Drug
NUM_PEAKS=124
PARAM_CONSENSUS=consensus
Superclass=Organoheterocyclic compounds
Class=Piperidines
Subclass=Phenylpiperidines
96.0808346648332 0.000283768839295456
97.0756776897102 0.00379225208764269
98.0838497401 0.0354346987735968
99.0914392625224 0.00396407104297446
101.1073248361 0.0538795704328615
111.091547460236 0.00184440064150681
113.10724649957 0.0035379733402379
127.123095190517 0.00637743997169004
131.1251001401 0.000240030994100307
133.283645629883 0.0167389557312169
139.122584360561 0.0104399906006902
145.133492870942 0.00186210558650571
150.091453650204 0.00249767199198731
153.138925397605 0.0178336054879384
164.106891991745 0.00455258718476418
178.227142333984 0.106665518745268
184.180739441975 0.0529333232366316
185.185316824028 0.0038660361760439
188.106994794642 0.000559345464284242
191.125882334664 0.00943443001853154
202.122415801865 0.0734181222586792
203.009401258005 0.000247316469313958
203.125558858109 0.00844271566477439
204.138391242952 0.0186541175512663
205.141610593122 0.00412771493505742
220.3156405601 0.000237007454252778
242.154021864568 0.00666986740058531
247.051086425781 0.208617222411659
257.139604990387 0.000895401792740566
279.090627491169 0.0145430988845152
285.985260009766 0.0182692899890116
290.222369053976 0.261758928236686
291.225817285924 0.034300172148082
300.146184630268 0.0047721465265814
301.149451151368 0.0010003695206277
302.22230497677 0.397472753985503
303.226027866851 0.0527465178701211
304.227522974295 0.00567834822076371
333.131965543066 0.00441480745347263
341.149906056062 0.00897271715935077
342.251463838134 0.0244959787140793
343.166588748753 0.03152158502795
343.256037172305 0.00231117690198969
344.16994682269 0.00203213340025109
345.148829771155 0.00105520605494466
347.161069606949 0.00135189883485008
356.107269972785 0.0237982419034378
358.131614329942 0.00910549465496104
373.176632621619 0.00168072621664263
374.185056619283 0.0225366639916252
375.190872849169 0.0372331340060141
376.196472479532 0.00588530305683777
379.22119140625 0.294422495017429
386.135492193185 0.115557142471021
387.13551842769 0.0312005920796509
390.125085558705 0.00208257139549793
390.191962856592 0.0138962732783675
391.199710005295 0.018700081847163
395.12016746299 0.000447421329152534
403.132977201055 0.00232350854420108
417.239042844505 0.0031337791479787
419.127590847393 0.00104471824155536
420.13030595519 0.000924788372315988
421.143458064748 0.118547201505679
422.143151062881 0.0213752460795309
423.141960796717 0.00486003380938706
426.198364257812 0.110668615930713
427.154041929866 0.00240587695943358
428.157184283349 0.000771352798568073
437.161997469509 0.00364199869991183
439.152970736453 0.0160646078100212
440.157386457414 0.00214644431493288
443.159021157044 0.00429223432959481
449.173491136708 0.00415844653754534
450.161585159483 0.00592422706584149
453.16974232658 0.0185129638051886
454.173486366384 0.000493218695064946
459.169511666783 0.0192092105736328
460.171429983029 0.00408188075511775
465.172629266217 0.00644465044123499
466.178723936036 0.00250375902424866
475.290745271866 0.0012099734869736
477.170251662272 0.147069963310414
477.237213824552 0.0180583566197154
478.169689275867 0.0730264389355142
479.184250062467 0.0989457418224923
480.190652403535 0.264780357698472
481.199456577463 1
482.201731135941 0.0895223585121752
483.200893975064 0.0260198121781358
488.198256966732 0.00844787025845664
492.217069100023 0.00613012194458596
494.194923328645 0.00453146322737585
496.263305664062 0.0821957723523135
497.274108886719 0.799713792937354
498.277893066406 0.434853498285057
499.281799316406 0.0572503978702646
504.219001338804 0.0180785979917997
513.2192976521 0.0520295767226939
523.236275808783 0.00755325354750369
527.291888365395 0.0238440249266764
528.29030379726 0.0104880078372422
529.2380217161 0.0319019215364391
530.2458467481 0.399856896468677
537.2516604001 0.00147334876820714
538.2469093681 0.000531729806443472
548.26611328125 0.00313560217068826
577.269714355469 0.0665617797671838
579.2860345281 0.0617498392478517
580.2938595601 0.0183538162695441
END IONS

BEGIN IONS
TITLE=msLevel 2; retentionTime ; scanNum 
msLevel=2
SCANS=272
centroided=TRUE
PEPMASS=470.2065
CHARGE=1+
RT=5.59
IONMODE=Positive
ADDUCT=M+K
ID=HOCBJBNQIQQQGT
SMILES=CC[C@H](CO)N=c1[nH]c(c2c(n1)n(cn2)C(C)C)NCc1ccc(cc1)c1ccccn1
FORMULA=C24H29N7O
FILENAME=2600129003_190420_MAS011_F5.mzXML
DrugBank.ID=DB08463
INCHIKEY=HOCBJBNQIQQQGT-LJQANCHMSA-N
CPD=CR8-(R)
Status=experimental
CAS=N/A
NAME=CR8-(R)
MSLEVEL=2
TIC=1231624.79931641
PEPMASS_DEV=0.000124819140228157
SCAN_NUMBER=491
PARAM_SUBMIT_USER=
PARAM_SAMPLE_TYPE=
PARAM_COMMENTS=
PARAM_ALGORITHM=RMassBank
PARAM_CREATION_TIME=2021-06-27 01:45:17
DB=Inhouse
CLASS=Drug
NUM_PEAKS=3
PARAM_CONSENSUS=consensus
Superclass=Organoheterocyclic compounds
Class=Pyridines and derivatives
Subclass=Phenylpyridines
80.047233581543 0.906006749935529
117.136749267578 0.039576156931534
121.178718566895 0.961779414428352
151.073822722558 0.00126521965419397
153.207127767469 0.000459511803147057
156.081497743105 0.00233286791314443
163.072382664366 0.00188574319006221
163.191619873047 1
167.073132568151 0.00101245132205087
168.080510354243 1
169.083960983343 0.119059170199667
170.096240313002 0.00196347030688571
192.111774173104 0.0033063706785522
193.120068291342 0.00912718001742279
203.105398272607 0.00116941319837732
205.120849063534 0.00809871755701431
210.127476031743 0.000754394607069229
214.093612670898 0.09514383546595
217.119584100731 0.00518671150476152
221.114738890208 0.00185954127483128
222.127950867022 0.0067941092920428
223.13040599795 0.00102164424389653
227.101776123047 0.151876791262958
231.134459233029 0.000760306758573898
233.150858414673 0.0304269223165572
234.158723874618 0.00838121455853494
235.13015742285 0.00242123917557207
239.101287841797 0.0675742758637156
245.150835308105 0.00842965117724315
246.158978465504 0.0119244384573555
247.166527410721 0.00494178533538727
256.140716552734 0.327011345819081
259.168145437478 0.00233648786946558
263.161485931388 0.0114022684999361
264.169319340196 0.00402257438330792
278.17835264055 0.00171479883569724
330.144819544345 0.00145718533538555
362.197403908682 0.00243520712859638
365.149993896484 0.270155670258413
372.19185268681 0.0516686215829506
374.197848632405 0.00136841302117645
382.176452636719 0.891135154731154
383.159149169922 0.117522389701023
390.203283777402 0.0470536350804115
401.232421319403 0.0013052366063273
412.210388183594 0.0928310345306904
414.240024608728 0.368388411498654
436.2216796875 1
439.207611083984 0.0614341680631329
END IONS

BEGIN IONS
TITLE=msLevel 2; retentionTime ; scanNum 
msLevel=2
SCANS=274
centroided=TRUE
PEPMASS=499.0439
CHARGE=1+
RT=5.66
IONMODE=Positive
ADDUCT=M+Na
ID=KCAJXIDMCNPGHZ
SMILES=Cc1ccc(cc1n1c(C)cc(c(c1=O)Br)OCc1ccc(cc1F)F)C(=NC)O
FORMULA=C22H19BrF2N2O3
FILENAME=2600129003_190420_MAS011_F6.mzXML
DrugBank.ID=DB07941
INCHIKEY=KCAJXIDMCNPGHZ-UHFFFAOYSA-N
CPD=PH-797804
Status=investigational
CAS=N/A
NAME=PH-797804
MSLEVEL=2
TIC=12238447.5600586
PEPMASS_DEV=-0.00156000136922029
SCAN_NUMBER=492
PARAM_SUBMIT_USER=
PARAM_SAMPLE_TYPE=
PARAM_COMMENTS=
PARAM_ALGORITHM=RMassBank
PARAM_CREATION_TIME=2021-06-27 01:48:18
DB=Inhouse
CLASS=Drug
NUM_PEAKS=86
PARAM_CONSENSUS=consensus
Superclass=Benzenoids
Class=Benzene and substituted derivatives
Subclass=Benzoic acids and derivatives
101.019738248202 0.00015343404022272
107.029329998161 0.000141050967483455
117.091213475664 0.00172143172963335
127.03523957909 0.25165531251703
128.038662053267 0.0173942800786468
129.042151854368 0.000322766405405968
139.035347040815 0.00398607271099398
156.080653198423 0.00905773074485894
160.09728921854 0.000161631983665666
167.029980566845 0.0246886561787997
169.065250151463 0.000161347936531027
200.070467586693 0.0076970528376104
213.10191810145 0.00493119940961273
214.944340890845 0.0033052268120214
252.000190209616 0.000170989193109325
252.082633977995 0.000326449120460562
253.091564912702 0.0126238429477149
264.087781617868 0.00516897690378386
265.032955203703 0.000280260461601822
293.047262749377 0.00051010912738224
293.089403835465 0.281146618615416
294.093706979715 0.0360579670754055
318.983287744456 0.000231795899048779
319.991178118496 0.000775038328623557
321.989745441432 0.000547475708779596
338.098865539606 0.00286237128370701
339.106670444928 0.000764553258091436
339.998639167147 0.000330259231343633
341.145381004125 0.00363564005382797
344.012782600361 0.244884095573469
345.015071584122 0.0326318891086184
346.010311006173 0.195783313599714
355.005673818746 0.0557435956561117
355.125363779904 0.00398611549594286
356.007566073926 0.0121532527595166
356.983518383419 0.270500300170194
357.003385330057 0.0408552170840751
357.9881267035 0.0345546784891238
358.981992834308 0.273478961289529
372.007538196724 0.735993770511442
373.010895295894 0.194633010975015
374.005524366282 1
377.128503761433 0.0248136707123915
381.14181233393 0.000265054782277733
383.119735171257 0.00136575453438238
385.0958912601 0.0427857325256136
391.1228549561 0.0250900217842945
397.135827317835 0.0139548596505348
398.144086683768 0.00112918575795612
399.111089331023 0.0107098495906381
400.1193663561 0.0619919231023862
419.116110945324 0.00343173796515684
420.1255946081 0.0944428656548101
446.019788797391 0.00301873345382097
471.047729492188 0.00359612224245375
END IONS

BEGIN IONS
TITLE=msLevel 2; retentionTime ; scanNum 
msLevel=2
SCANS=282
centroided=TRUE
PEPMASS=406.1901
CHARGE=1+
RT=5.73
IONMODE=Positive
ADDUCT=M+Na
ID=KKYABQBFGDZVNQ
SMILES=Cc1c(cc(cc1F)C(=NC1CC1)O)c1ccc(cn1)C(=NCC(C)(C)C)O
FORMULA=C22H26FN3O2
FILENAME=2600129003_190420_MAS011_G1.mzXML
DrugBank.ID=DB12270
INCHIKEY=KKYABQBFGDZVNQ-UHFFFAOYSA-N
CPD=losmapimod
Status=investigational
CAS=N/A
NAME=losmapimod
MSLEVEL=2
TIC=725360.5078125
PEPMASS_DEV=-0.00074425559592103
SCAN_NUMBER=496
PARAM_SUBMIT_USER=
PARAM_SAMPLE_TYPE=
PARAM_COMMENTS=
PARAM_ALGORITHM=RMassBank
PARAM_CREATION_TIME=2021-06-27 01:50:27
DB=Inhouse
CLASS=Drug
NUM_PEAKS=1
PARAM_CONSENSUS=consensus
Superclass=Organoheterocyclic compounds
Class=Pyridines and derivatives
Subclass=Phenylpyridines
86.1674575805664 0.5
96.1758189961 0.000134696051019725
213.0584435161 0.000589482572111923
275.08515854822 0.000311327282933833
300.1621000601 0.00193368819019692
327.149937461822 1
341.2023680921 0.000163541356750726
344.17701901068 0.000269874708380055
345.160563646064 0.0169706981672165
END IONS

BEGIN IONS
TITLE=msLevel 2; retentionTime ; scanNum 
msLevel=2
SCANS=286
centroided=TRUE
PEPMASS=358.0596
CHARGE=1+
RT=5.68
IONMODE=Positive
ADDUCT=M+Na
ID=XQRVCODIGHFXKQ
SMILES=c1ccc(c(c1)C(C#N)C(=N)Sc1ccc(cc1)N)C(F)(F)F
FORMULA=C16H12F3N3S
FILENAME=2600129003_190420_MAS011_G11.mzXML
DrugBank.ID=Unknown
INCHIKEY=XQRVCODIGHFXKQ-UHFFFAOYSA-N
CPD=SL 327
Status=Unknown
CAS=N/A
NAME=SL 327
MSLEVEL=2
TIC=438584.555664062
PEPMASS_DEV=0.000148832089684162
SCAN_NUMBER=489
PARAM_SUBMIT_USER=
PARAM_SAMPLE_TYPE=
PARAM_COMMENTS=
PARAM_ALGORITHM=RMassBank
PARAM_CREATION_TIME=2021-06-27 01:52:19
DB=Inhouse
CLASS=Drug
NUM_PEAKS=7
PARAM_CONSENSUS=consensus
Superclass=Benzenoids
Class=Benzene and substituted derivatives
Subclass=Trifluoromethylbenzenes
92.0494905908592 0.000770340968607987
93.0573235718058 0.96193862502307
94.0649352674079 0.133930907729784
95.0639715111362 0.00110382553577292
109.010489943104 0.000985182104955168
119.060074164958 0.0009117110981842
124.021630649744 0.00913077291965143
125.029371702785 0.00119416032208094
126.037189098657 0.0661060605715447
136.021631845716 0.00188596958404962
142.046437074638 0.000264854414030697
151.032378877943 0.00247148258781411
157.025502661204 0.000165725532587528
164.030637514247 0.000421354669928684
166.046425531383 0.00177899979143386
169.088446943278 0.000528835117074167
174.024720763261 0.0153805876163618
175.028463087596 0.00148293107079305
178.012082178957 0.000257584736145558
184.036934569238 0.00197344977371023
186.052495722867 0.000657400527578181
188.997904225142 0.000782840051487582
191.041628269812 0.00739545413842746
198.018278248723 0.00183722046002413
199.02061755371 0.000190119026644133
200.998780051314 0.000172871367292643
203.00767122349 0.000741197347202766
209.051568974102 0.00042558568857814
211.047820083853 0.00377127130762689
216.00877309944 0.0376377281112092
217.012431773505 0.00391170478331681
218.024544836622 0.000311327475164687
221.017573984524 0.000474845731917182
223.013526396201 0.00728400647297996
229.057588979918 0.0002389317744414
234.102622944102 0.00741421596411211
237.082563899332 0.00223244709376379
241.023755782702 0.000331117475375231
243.019665094833 0.0735197173122074
244.023367180499 0.00811745518750645
249.04762964362 0.000420424106070483
250.055878880271 0.00301145277277959
251.058344359408 0.000374759184099475
254.043776326952 0.00122799636687292
257.035632428366 0.00267167792529127
257.088244595829 0.000809384706120343
258.038923933526 0.000500813763020232
262.077172930328 0.00032182666468771
263.085379140886 0.00669609437640856
264.092396158418 0.00214392289928686
265.095355536326 0.000378163358499655
269.054494323545 0.00252061859884183
274.049439571266 0.000202005286261799
275.045646691309 0.000167230147789661
276.059158269307 0.00183505664656352
276.08677643625 0.000191358063664549
277.043029785156 0.0596652769195461
277.061744589431 0.000216264822262919
277.094428732526 0.00033219945775806
279.039122831212 0.151495002469231
281.034482834731 0.000219756715763427
283.091207808473 0.000526616039445559
286.071389092091 0.000305891292911954
292.040346536416 0.000722429015401152
294.055833925964 0.000499701633107018
295.0506366212 0.000241523932486798
296.065030420076 0.0596163474881076
297.049835205078 0.179082737495708
298.05860904724 0.00204556327160989
298.075149456773 0.000243028698993977
299.044820987556 0.813500252109026
302.090161039916 0.000632556806444536
303.09782228023 0.00992795684079006
304.105270042222 0.0853311944109649
309.066982770716 0.00229228052283771
316.071467957183 0.00484528929545343
319.051209595223 1
END IONS

BEGIN IONS
TITLE=msLevel 2; retentionTime ; scanNum 
msLevel=2
SCANS=290
centroided=TRUE
PEPMASS=557.1883
CHARGE=1+
RT=5.05
IONMODE=Positive
ADDUCT=M+Na
ID=BMMXYEBLEBULND
SMILES=Cn1c2cnc3ccc(cc3c2n(c2ccc(c(c2)C(F)(F)F)N2CCNCC2)c1=O)c1ccc(nc1)OC
FORMULA=C28H25F3N6O2
FILENAME=2600129003_190420_MAS011_G12.mzXML
DrugBank.ID=Unknown
INCHIKEY=BMMXYEBLEBULND-UHFFFAOYSA-N
CPD=BGT226
Status=experimental
CAS=N/A
NAME=BGT226
MSLEVEL=2
TIC=3233928.86132812
PEPMASS_DEV=-0.000498591496397875
SCAN_NUMBER=437
PARAM_SUBMIT_USER=
PARAM_SAMPLE_TYPE=
PARAM_COMMENTS=
PARAM_ALGORITHM=RMassBank
PARAM_CREATION_TIME=2021-06-27 01:55:23
DB=Inhouse
CLASS=Drug
NUM_PEAKS=8
PARAM_CONSENSUS=consensus
Superclass=Organoheterocyclic compounds
Class=Quinolines and derivatives
Subclass=Imidazoquinolines
167.073468582788 0.000409532681564949
169.076511725895 0.00104135560941854
170.084583974888 0.00181111873723114
173.018982153785 0.000155378353880463
183.092288085276 0.000740243153145502
184.100006926122 0.00200139014840711
291.087837729572 0.000110589938055273
299.060923956307 0.000182877615874033
305.103406494501 0.000222071903816553
318.043975830078 1
404.151597660766 0.0133284922939613
405.155490901372 0.00212615602687348
408.14848573094 0.000113038774429559
420.146840973703 0.00435212573051263
421.149907845441 0.00202228479481055
422.162817098324 0.000578618757923236
423.164970366009 0.000272062227374928
428.152742488148 0.000366832856883916
432.145991508257 0.000199899624164616
433.153006974147 0.000339197424884831
434.162297829317 0.018861936614712
435.16604717077 0.00414473580642431
436.169550082882 0.000786796445337022
444.146176612892 0.00367807830456363
445.151571037218 0.00147483005663514
446.159589420985 0.00119260708594127
448.178090378682 0.00314864412148751
449.181259294135 0.000726219302829426
452.153134270117 0.000901393769289433
458.16259371925 0.0219556124643093
459.165205133806 0.00806527920186108
460.16589393646 0.00320585976387916
461.169976424322 0.00178440062270375
473.173514539609 0.00306933645169286
474.176510499836 0.00119725539528636
475.188339036713 0.474877951907031
476.191609033815 0.221402472881701
477.195742069122 0.00943505528267203
478.150623910402 0.000435760750548143
478.19806538417 0.000898176910408313
492.1641859921 0.000288765238735403
493.1720110241 0.000133184011138
495.1939286481 0.059815345771013
496.19728088379 0.0211585678046084
498.200500488281 0.000182416798492567
515.2001569001 0.00938499690344526
521.18603515625 0.31626523021675
535.2063851521 0.166666666666667
END IONS

BEGIN IONS
TITLE=msLevel 2; retentionTime ; scanNum 
msLevel=2
SCANS=292
centroided=TRUE
PEPMASS=359.1866
CHARGE=1+
RT=4.87
IONMODE=Positive
ADDUCT=M+H
ID=BPNUQXPIQBZCMR
SMILES=Cc1c2cc(ccc2n[nH]1)c1cc(cnc1)OC[C@H](Cc1ccccc1)N
FORMULA=C22H22N4O
FILENAME=2600129003_190420_MAS011_G4.mzXML
DrugBank.ID=DB08568
INCHIKEY=BPNUQXPIQBZCMR-IBGZPJMESA-N
CPD=A-674563
Status=experimental
CAS=N/A
NAME=A-674563
MSLEVEL=2
TIC=56300559.3520508
PEPMASS_DEV=0.00118877114306937
SCAN_NUMBER=414
PARAM_SUBMIT_USER=
PARAM_SAMPLE_TYPE=
PARAM_COMMENTS=
PARAM_ALGORITHM=RMassBank
PARAM_CREATION_TIME=2021-06-27 01:56:01
DB=Inhouse
CLASS=Drug
NUM_PEAKS=26
PARAM_CONSENSUS=consensus
Superclass=Benzenoids
Class=Benzene and substituted derivatives
Subclass=Phenethylamines
91.0542266441 0.160513774485148
115.054502290295 0.00169667190323282
117.069980423857 0.392847894870793
134.0964258041 0.099220916860082
169.075828714757 0.000491609205442146
171.148586924819 0.000291043026147898
198.103559351035 0.00660879015824878
198.103559351035 0.00660879015824878
208.08921194535 0.000347379902603267
210.091991546325 0.000287922253023115
210.103404871385 0.00230975312661741
210.103404871385 0.00230975312661741
211.074956432138 0.000309679801023065
224.081364814771 0.000253869662879507
225.08985396731 0.000440323631200602
226.0974884241 1
236.118112323224 0.000358064319857905
238.0974884241 0.0203163053143344
249.11285952774 0.000386357918645192
250.097527898766 0.0119978864460131
251.1053134561 0.02554997439485
264.1131384881 0.00641475020260674
279.122989208174 0.00092428864095645
314.129846795174 0.00247286128458538
314.165918575391 0.00101726927934478
342.1600886801 0.219296263668626
END IONS

BEGIN IONS
TITLE=msLevel 2; retentionTime ; scanNum 
msLevel=2
SCANS=295
centroided=TRUE
PEPMASS=264.1257
CHARGE=1+
RT=6.26
IONMODE=Positive
ADDUCT=M+
ID=UAKWLVYMKBWHMX
SMILES=CN(C)c1ccc(cc1)C=C1c2ccccc2NC1=O
FORMULA=C17H16N2O
FILENAME=2600129003_190420_MAS011_G5.mzXML
DrugBank.ID=Unknown
INCHIKEY=UAKWLVYMKBWHMX-UHFFFAOYSA-N
CPD=SU 4312
Status=Unknown
CAS=N/A
NAME=SU 4312
MSLEVEL=2
TIC=16252375.8408203
PEPMASS_DEV=0.00153711161928709
SCAN_NUMBER=579
PARAM_SUBMIT_USER=
PARAM_SAMPLE_TYPE=
PARAM_COMMENTS=
PARAM_ALGORITHM=RMassBank
PARAM_CREATION_TIME=2021-06-27 01:57:02
DB=Inhouse
CLASS=Drug
NUM_PEAKS=35
PARAM_CONSENSUS=consensus
Superclass=Organoheterocyclic compounds
Class=Indoles and derivatives
Subclass=Indolines
91.0542132013082 0.00142243246913749
93.0699249616704 0.000388716940050943
94.064845267894 0.000188825710434887
100.075650320469 0.00172661695808037
104.049497229453 0.000320452632539731
105.057456782517 0.00132246531230834
106.06514957893 0.0507103415075983
107.072775960019 0.00296353315601541
108.080649600312 0.000383572779307271
109.064516196832 0.00020967588904246
116.049339653755 0.000971047506110541
117.057311984624 0.000709305401869661
118.065120260618 0.00610385371949759
119.072908022917 0.000172540755372081
120.08076278074 0.180086594929362
121.08854314317 0.00137554331522409
122.096494157314 0.00139596955572403
130.065109981397 0.00645095926942212
131.072944782844 0.00182721674047636
132.044318176522 0.00542713322433844
132.080916319348 0.0153792897057558
133.05218358602 0.00146534068710752
133.088606201325 0.00303217892352117
134.060106318285 0.0137232143048026
138.091386364827 0.000287451409027896
144.044438436503 0.00303491075819965
144.080752497377 0.00207581972073011
145.052550313405 0.00105203279463342
146.059972881443 0.0443786036825106
148.075640657589 0.0383213029519937
158.060005067381 0.035875823537203
160.075683222126 0.00557353042483782
161.107497763403 0.00090943664581232
165.070421166679 0.000259837154028525
172.062537116742 0.000760193227867309
172.075718531009 0.0136398750272963
173.070837463858 0.00150059954399332
178.077211383586 0.000260147950337398
179.085688591514 0.000312123149572813
191.072637838881 0.000283120213862179
192.080368682068 0.000784716221310624
193.08876134711 0.00335951222610785
194.097124298202 0.000804792705112198
203.07302676033 0.000552940095670503
204.080802074089 0.0113957875555246
205.0876451416 0.00238755477648462
206.096373961647 0.0126249329584576
208.100405012328 0.000261570359276589
208.112215449203 0.000665420809343603
209.083226673511 0.000355856955341067
210.127083909545 0.000627661511315049
217.088434400138 0.000732893109483346
218.097391819398 0.00136399897935935
219.068618726464 0.00034755735777155
219.103881135939 0.000294762926188398
220.075579181937 0.0583609013632008
221.107131794155 0.00303848917898828
222.091202021753 0.00896694489619331
222.11533376899 0.0134453678723752
222.127930347251 0.000631261947915839
223.135693858168 0.00101853986617562
224.106356650474 0.00037205031801629
230.095990718892 0.000429502171516606
231.091669466076 0.0078889494984847
231.103577203007 0.000445471408491442
232.099438301214 0.0502540041455858
233.083651201773 0.00203399884643761
233.107435994727 0.0437002396373972
234.091309506437 0.00946189166947187
235.086311615971 0.000892970708211844
235.123183635512 0.00470269578482
236.130937893366 0.010068328578827
237.138541182075 0.0304362885582
245.108362246862 0.00163174376224371
246.115591400371 0.00167687893006396
247.086669921875 0.208900503581452
247.122910436423 0.651187209156581
248.094718616152 0.00224629356061955
249.102253172812 0.0657538232425753
250.109845889799 1
263.118062912141 0.04940253702794
264.125787859084 0.0852776507628353
END IONS

BEGIN IONS
TITLE=msLevel 2; retentionTime ; scanNum 
msLevel=2
SCANS=299
centroided=TRUE
PEPMASS=344.1369
CHARGE=1+
RT=5.8
IONMODE=Positive
ADDUCT=M+Na
ID=INAICWLVUAKEPB
SMILES=C1C2CN(C1CN2C3=CC=CC=N3)C=CC(=O)C4=CC=CC=C4O
FORMULA=C19H19N3O2
FILENAME=2600129003_190420_MAS011_H1.mzXML
DrugBank.ID=Unknown
INCHIKEY=INAICWLVUAKEPB-HUUCEWRRSA-N
CPD=Pubchem_NCGC00356070-01
Status=Unknown
CAS=N/A
NAME=Pubchem_NCGC00356070-01
MSLEVEL=2
TIC=2175404.49707031
PEPMASS_DEV=-0.000934538606376664
SCAN_NUMBER=510
PARAM_SUBMIT_USER=
PARAM_SAMPLE_TYPE=
PARAM_COMMENTS=
PARAM_ALGORITHM=RMassBank
PARAM_CREATION_TIME=2021-06-27 01:58:50
DB=Inhouse
CLASS=Drug
NUM_PEAKS=6
PARAM_CONSENSUS=consensus
Superclass=Organoheterocyclic compounds
Class=Diazinanes
Subclass=Piperazines
80.0494438981731 0.000827688890055159
82.0651667107027 0.0221746424659775
83.0644031785604 0.00141855287174319
85.0634712919583 0.000122517555194748
91.0543899661531 0.000154321294012094
94.0650832935491 0.00043574854593934
95.0604084403892 0.0217742324474436
96.0444156913675 0.000194204424162318
96.0808153526837 0.000252268148935987
107.049208495851 0.00168873055457253
107.060309208436 0.00379712897525039
108.080777150371 0.00368161701298888
118.064978416848 0.00016079137418632
119.060370227181 0.00560095167781017
121.028434639114 0.0345741541241123
122.060151715377 0.000138912217655287
123.091488623254 0.00056310080506262
131.049238490863 0.00127562619164402
131.060270389796 0.000664878684758873
133.064585176589 0.000227644359536164
133.076059574408 0.00172488615775612
134.060068487086 0.000226115646802687
135.09167201955 0.00916904396035095
136.075683794034 0.00279336968279914
143.010375976562 1
144.007339477539 0.00389518857670293
145.076156106887 0.00390437183486287
147.043922800719 0.517445509904029
149.059702842163 0.00233193870747976
157.075980381285 0.000355352194509963
159.091712755709 0.0943177264337185
160.088854962463 0.000705515865399222
161.10758472341 0.00015654463669374
171.149883567498 0.000154492993151506
176.117877506994 1
178.086547379459 0.000682254762447071
184.036499023438 0.00272585976049024
185.10722805359 0.000341179372753537
186.102391304345 0.00319883355533738
198.090679050039 0.000712846532485383
202.133781498358 0.0410007028300985
204.113138173022 0.00140518242949244
210.091967029839 0.000208610468368659
224.115829467773 0.199228817482619
228.101912920011 0.0029128106334292
250.095306396484 0.00963318014981771
305.129844761189 0.000233345612072072
END IONS

BEGIN IONS
TITLE=msLevel 2; retentionTime ; scanNum 
msLevel=2
SCANS=300
centroided=TRUE
PEPMASS=433.1282
CHARGE=1+
RT=5.11
IONMODE=Positive
ADDUCT=M+H
ID=OGZNAHUSFVMYPZ
SMILES=CC1=C(C(CC(=O)N1)C2=CC=C(C=C2)C(F)(F)F)C(=O)NC3=C(F)C=C4[NH]N=CC4=C3
FORMULA=C21H16F4N4O2
FILENAME=2600129003_190420_MAS011_H10.mzXML
DrugBank.ID=Unknown
INCHIKEY=OGZNAHUSFVMYPZ-UHFFFAOYSA-N
CPD=GSK 429286
Status=Unknown
CAS=N/A
NAME=GSK 429286
MSLEVEL=2
TIC=31372021.8671875
PEPMASS_DEV=0.00116706950719169
SCAN_NUMBER=436
PARAM_SUBMIT_USER=
PARAM_SAMPLE_TYPE=
PARAM_COMMENTS=
PARAM_ALGORITHM=RMassBank
PARAM_CREATION_TIME=2021-06-27 01:59:53
DB=Inhouse
CLASS=Drug
NUM_PEAKS=91
PARAM_CONSENSUS=consensus
Superclass=
Class=
Subclass=
84.0445861816406 0.0133907278023386
133.039749145508 0.000837030367076767
136.039398193359 0.00167112215951623
136.039398193359 0.00167112215951623
152.061965942383 0.126168824569091
152.061965942383 0.126168824569091
153.058822631836 0.00133162593657471
153.058822631836 0.00133162593657471
153.058822631836 0.00133162593657471
153.058822631836 0.00133162593657471
153.065292358398 0.00973963036019209
153.065292358398 0.00973963036019209
172.050064086914 0.000579645337598636
172.050064086914 0.000579645337598636
172.050064086914 0.000579645337598636
172.050064086914 0.000579645337598636
173.021057128906 0.00806544541450831
173.021057128906 0.00806544541450831
174.066253662109 0.000943982507510943
174.066253662109 0.000943982507510943
178.041259765625 0.00323824006086352
178.041259765625 0.00323824006086352
199.03662109375 0.0213340689994589
199.03662109375 0.0213340689994589
200.039367675781 0.00221075157477816
214.085998535156 0.00105561234874264
214.085998535156 0.00105561234874264
214.085998535156 0.00105561234874264
215.092910766602 0.00274295976294984
215.092910766602 0.00274295976294984
215.092910766602 0.00274295976294984
216.096435546875 0.00062750870225322
216.096435546875 0.00062750870225322
219.059936523438 0.000451479836402937
219.059936523438 0.000451479836402937
221.040618896484 0.000822566807484543
221.040618896484 0.000822566807484543
221.040618896484 0.000822566807484543
221.040618896484 0.000822566807484543
234.072769165039 0.00564580348742223
234.072769165039 0.00564580348742223
234.072769165039 0.00564580348742223
234.072769165039 0.00564580348742223
239.068450927734 0.000563236813242687
239.068450927734 0.000563236813242687
239.068450927734 0.000563236813242687
239.068450927734 0.000563236813242687
240.06315612793 0.00776853504881691
240.06315612793 0.00776853504881691
240.06315612793 0.00776853504881691
240.06315612793 0.00776853504881691
254.0791015625 0.00286221386935008
254.0791015625 0.00286221386935008
254.0791015625 0.00286221386935008
254.0791015625 0.00286221386935008
256.094543457031 0.00210754777261116
256.094543457031 0.00210754777261116
256.094543457031 0.00210754777261116
256.094543457031 0.00210754777261116
262.067535400391 0.0570894274519264
262.067535400391 0.0570894274519264
262.067535400391 0.0570894274519264
265.047515869141 0.000980382581133786
265.047515869141 0.000980382581133786
281.081176757812 0.00096833373322637
281.081176757812 0.00096833373322637
282.073425292969 1
282.073425292969 1
282.073425292969 1
282.073425292969 1
284.079650878906 0.0125050725748532
284.079650878906 0.0125050725748532
287.094177246094 0.00102642634571233
287.094177246094 0.00102642634571233
287.094177246094 0.00102642634571233
310.079010009766 0.000648819546002838
310.079010009766 0.000648819546002838
310.079010009766 0.000648819546002838
310.079010009766 0.000648819546002838
330.084747314453 0.00193182568782481
330.084747314453 0.00193182568782481
330.084747314453 0.00193182568782481
330.084747314453 0.00193182568782481
352.088623046875 0.000585832645041112
372.095520019531 0.00150538707712992
373.108795166016 0.00080887001522326
373.108795166016 0.00080887001522326
373.108795166016 0.00080887001522326
393.115081787109 0.00617947486765179
394.118957519531 0.00123336193141826
413.122161865234 0.0399135255800105
END IONS

BEGIN IONS
TITLE=msLevel 2; retentionTime ; scanNum 
msLevel=2
SCANS=303
centroided=TRUE
PEPMASS=376.1456
CHARGE=1+
RT=5.93
IONMODE=Positive
ADDUCT=M+H
ID=NVBNDZZLJRYRPD
SMILES=Cc1cc(c(cc1O)Nc1c2ccc(cc2ncn1)OCc1ccccc1)F
FORMULA=C22H18FN3O2
FILENAME=2600129003_190420_MAS011_H2.mzXML
DrugBank.ID=Unknown
INCHIKEY=NVBNDZZLJRYRPD-UHFFFAOYSA-N
CPD=ZM-323881
Status=experimental
CAS=N/A
NAME=ZM-323881
MSLEVEL=2
TIC=289259165.478516
PEPMASS_DEV=0.00119764997347364
SCAN_NUMBER=520
PARAM_SUBMIT_USER=
PARAM_SAMPLE_TYPE=
PARAM_COMMENTS=
PARAM_ALGORITHM=RMassBank
PARAM_CREATION_TIME=2021-06-27 02:01:10
DB=Inhouse
CLASS=Drug
NUM_PEAKS=27
PARAM_CONSENSUS=consensus
Superclass=Organoheterocyclic compounds
Class=Diazanaphthalenes
Subclass=Benzodiazines
91.0546578107277 1
92.0580289161 0.0739324778477921
132.081882617672 0.00080362907868043
192.996689319455 0.000948867677354047
238.0974884241 0.00139373750474654
238.0974884241 0.00139373750474654
248.083736969571 0.00162446706848768
248.083736969571 0.00162446706848768
252.0767529801 0.00134350064246737
254.073259530415 0.00437549826847118
254.073259530415 0.00437549826847118
254.073259530415 0.00437549826847118
257.098515231451 0.0257488583179455
258.1025738041 0.00296561021936766
258.1025738041 0.00296561021936766
265.0845780121 0.016729201800093
272.084517170374 0.00144807337156385
278.0924030441 0.00224326699688906
286.0974884241 0.0834908716008848
286.0974884241 0.0834908716008848
286.0974884241 0.0834908716008848
287.0979030241 0.00627355773525727
298.062429985223 0.0110803384231952
299.061148801954 0.00185036260828295
299.061148801954 0.00185036260828295
348.1506668681 0.402879142622912
356.1393532361 0.00265743227113388
END IONS

BEGIN IONS
TITLE=msLevel 2; retentionTime ; scanNum 
msLevel=2
SCANS=304
centroided=TRUE
PEPMASS=319.119
CHARGE=1+
RT=5.02
IONMODE=Positive
ADDUCT=M+H
ID=VPVLEBIVXZSOMQ
SMILES=c1cc(cc(c1)N)c1cc2c(nc[nH]c2Oc2cccc(c2)O)n1
FORMULA=C18H14N4O2
FILENAME=2600129003_190420_MAS011_H4.mzXML
DrugBank.ID=Unknown
INCHIKEY=VPVLEBIVXZSOMQ-UHFFFAOYSA-N
CPD=TWS-119
Status=experimental
CAS=N/A
NAME=TWS-119
MSLEVEL=2
TIC=71845147.6767578
PEPMASS_DEV=0.0013339563665018
SCAN_NUMBER=433
PARAM_SUBMIT_USER=
PARAM_SAMPLE_TYPE=
PARAM_COMMENTS=
PARAM_ALGORITHM=RMassBank
PARAM_CREATION_TIME=2021-06-27 02:01:43
DB=Inhouse
CLASS=Drug
NUM_PEAKS=49
PARAM_CONSENSUS=consensus
Superclass=Organoheterocyclic compounds
Class=Pyrroles
Subclass=Substituted pyrroles
93.0334862492966 0.0140855992247003
110.060064624918 0.0630562357478893
111.043890587071 0.00817601611580839
120.044301152009 0.0252635679103523
130.06514544563 0.0161549465488045
137.070899832527 0.116798147362437
145.076036957688 0.0442308188199771
146.079491863973 0.0038694264686162
155.060260087986 0.0388920603498682
157.076036439716 0.0339585940676114
158.084346957156 0.0115251537663792
161.070872458341 0.00244569341396538
162.066236691851 0.00267884638423408
163.05072100615 0.00263946972321792
167.059928150746 0.00915606032377511
172.086618112166 0.13026232235467
173.07094093863 0.0156767320242687
182.071082465278 0.0124711070952816
183.055251539416 0.052656205587488
183.079574619811 0.00362052692573124
183.079574619811 0.00362052692573124
184.086815789515 0.812051533896101
185.070970092855 0.0364942742422246
200.082124725414 1
209.082728145379 0.0783439011912792
209.082728145379 0.0783439011912792
210.066704629966 0.0428021455737629
210.066704629966 0.0428021455737629
223.097973088787 0.00316455478291023
225.077996372004 0.0288368081179419
225.077996372004 0.0288368081179419
226.085306987629 0.210107112834251
226.085306987629 0.210107112834251
227.09354886423 0.119055388217966
227.09354886423 0.119055388217966
249.115007308942 0.00859403930062597
250.120814643628 0.00348234569618812
251.094273820035 0.0358746430248504
263.129488087918 0.00407796695220747
264.114174663722 0.00733747117374354
275.080598431824 0.00363059604728879
276.113133142286 0.0167209893225008
277.10929176255 0.0205233874754687
277.10929176255 0.0205233874754687
291.1240375201 0.0332656025814133
292.108379698042 0.00797411686575111
299.0927373921 0.0250448377632759
302.093156689866 0.0353637162965066
318.1111271081 0.0184614481347736
END IONS

BEGIN IONS
TITLE=msLevel 2; retentionTime ; scanNum 
msLevel=2
SCANS=313
centroided=TRUE
PEPMASS=472.9849
CHARGE=1+
RT=5.5
IONMODE=Positive
ADDUCT=M+Na
ID=KFRKRECSIYXARE
SMILES=c1ccc(c(c1)CC(=NNc1nc(cs1)c1ccc(c(c1)Cl)Cl)C(=O)O)N(=O)=O
FORMULA=C18H12Cl2N4O4S
FILENAME=2600129004_190423_MAS011_A1.mzXML
DrugBank.ID=Unknown
INCHIKEY=KFRKRECSIYXARE-UHFFFAOYSA-N
CPD=4EGI-1
Status=Unknown
CAS=N/A
NAME=4EGI-1
MSLEVEL=2
TIC=1581527.86425781
PEPMASS_DEV=-0.00016979240345119
SCAN_NUMBER=476
PARAM_SUBMIT_USER=
PARAM_SAMPLE_TYPE=
PARAM_COMMENTS=
PARAM_ALGORITHM=RMassBank
PARAM_CREATION_TIME=2021-06-27 02:10:15
DB=Inhouse
CLASS=Drug
NUM_PEAKS=41
PARAM_CONSENSUS=consensus
Superclass=Phenylpropanoids and polyketides
Class=Phenylpropanoic acids
Subclass=
83.0855865478516 0.01009817519347
85.1011734008789 0.00915285529548008
89.0597763061523 0.436732041128655
92.0496567719103 0.2049977006927
93.0532778841 0.0036116850229844
95.0494081026174 0.00270229914629052
95.0855331420898 0.00670347653398102
101.096138000488 0.00788239571389428
104.049833829944 0.00369178001290305
107.049548492307 0.00294760575349391
107.070289611816 0.0942947810268307
110.060341905112 0.0247335617576998
111.043910980224 0.026242374950512
118.00186920166 0.00348893772213533
118.065343811564 0.000870972221553376
119.060569337606 0.00263529544978221
120.044671189354 0.214458135977711
121.0481925041 0.00323212471229997
122.058959960938 0.00359944148525589
130.029069138251 0.00667071461553013
132.044697230918 0.0856141972345282
133.051496566222 0.0159025204692343
133.085891723633 0.00801328248932047
134.06053894696 0.00182650554925837
136.0398052895 0.00414226127744983
138.055341829293 0.00707953727562006
145.040047980806 0.0277311369873507
145.052621242285 0.00479503044853514
147.055676073473 0.0111757947341753
148.039305771517 0.781085804688873
149.023376464844 0.0515751369984549
149.042770186812 0.0133875212279254
149.096237182617 0.00536905092503876
155.070236206055 0.5
157.0859375 0.0541464664498187
158.964233398438 0.0408147555905684
163.050421073902 0.00413361601529028
165.066262789943 0.0156045317375732
167.978921406593 0.00126217751098003
169.968357371749 0.00390795790931408
171.972136562915 0.00344535109608556
173.080490112305 0.0859326124039265
185.032028198242 1
186.035552978516 0.0302042318848893
191.044675140323 0.0796518050872378
192.04847207979 0.00443747798764333
192.974296801265 0.0714253161778287
193.977834341964 0.00771498750948466
194.971285848202 0.0243767482282012
198.981850204496 0.00408949342440962
201.11262512207 0.00661504002752585
203.937251686104 0.00118389732167088
207.985230500033 0.0201218915203975
208.969221580605 0.0577744884755954
209.055189384161 0.0749937947790465
209.981700749434 0.00366763414125109
210.000423237003 0.00404706669185374
210.0583260441 0.00221972913445545
210.96616485129 0.010938219767381
215.943187983171 0.00359369436557911
217.940131253855 0.00191416248598056
219.972627414544 0.00434265453332775
227.944637097171 0.0444938671649304
228.948013637718 0.00846408347130795
229.941624510944 0.0380147458397681
229.960301349693 0.0365845587265221
230.920822143555 0.00366259786998897
230.963525301687 0.00987138663763606
231.957242986901 0.0453294243701951
242.955551146458 0.0329110879874246
243.939609976337 0.00356971701182644
243.963306978443 0.0496591335936416
244.9510365801 0.0413675763962023
244.970772892179 0.0536185204225008
245.936582131255 0.00570007796907783
245.960645345885 0.0535029688746719
245.974027361884 0.0141413833070326
246.944826246606 0.026528725721007
246.967989188779 0.0464601873123949
247.952826220274 0.00255754295663905
257.96654149002 0.0142908571160842
259.963528903793 0.0108727646719866
265.943969726562 0.429978580498889
266.952270507812 0.184812325163128
267.940979003906 0.0793733482799304
267.955810546875 0.0556336153904567
268.948974609375 0.031409843507582
270.950667581354 0.00340654818419283
272.948173796203 0.00438416362713675
273.950222816348 0.0067204679576837
275.947545924934 0.00385309435984041
285.96113912384 0.0032134236343786
295.051480030787 0.00309496711229759
302.025875488922 0.00407284223936479
316.984527959192 0.00205950662674457
330.018489756446 0.00228824978598384
330.984611570401 0.00907109356635468
332.98106393849 0.00321116911962261
333.000442526899 0.00302770505433556
334.997291621995 0.00252499235273611
358.978889869011 0.0053899062750786
359.986851123454 0.0100154537654354
360.972748252825 0.00273758836200778
361.984798847183 0.00363910954753254
404.9957131502 0.000983247271947596
407.0130784361 0.0017261707758322
END IONS

BEGIN IONS
TITLE=msLevel 2; retentionTime ; scanNum 
msLevel=2
SCANS=318
centroided=TRUE
PEPMASS=444.2268
CHARGE=1+
RT=5.09
IONMODE=Positive
ADDUCT=M+
ID=ISOCDPQFIXDIMS
SMILES=C1C[C@@H](C(=O)Nc2ccc(cc2)c2ccnc(Nc3ccc(cc3)N3CCOCC3)n2)NC1
FORMULA=C25H28N6O2
FILENAME=2600129004_190423_MAS011_A11.mzXML
DrugBank.ID=Unknown
INCHIKEY=ISOCDPQFIXDIMS-QHCPKHFHSA-N
CPD=XL019
Status=experimental
CAS=N/A
NAME=XL019
MSLEVEL=2
TIC=15958965.5878906
PEPMASS_DEV=0.000859675106020171
SCAN_NUMBER=462
PARAM_SUBMIT_USER=
PARAM_SAMPLE_TYPE=
PARAM_COMMENTS=
PARAM_ALGORITHM=RMassBank
PARAM_CREATION_TIME=2021-06-27 02:11:43
DB=Inhouse
CLASS=Drug
NUM_PEAKS=33
PARAM_CONSENSUS=consensus
Superclass=Organic acids and derivatives
Class=Carboxylic acids and derivatives
Subclass=Amino acids, peptides, and analogues
101.175695858879 0.000275381578564723
117.184018380281 0.000272863172892599
132.080601054515 0.00105746709204801
262.120383591267 0.000377330177025511
275.130518346374 0.00113502746844098
289.145568353981 0.0048887680611257
290.139209222063 0.00907527922896384
300.124536438159 0.015434978475123
302.139799298271 0.0159195080444799
303.14661494414 0.0169782788975386
304.154969348051 0.00203042768793178
316.155283745988 0.00896303510265293
317.162913528542 0.0353332422394067
328.156453596452 0.00255710760360325
333.170159775579 0.000583243222760908
346.166050479973 0.0856499011054644
347.173783347257 0.818649172960319
348.180541763419 1
350.186885390869 0.0250013469039074
359.055084228516 0.000372269868632858
370.164123535156 0.209967812415346
372.182695406117 0.186329999179912
374.16112392177 0.00724057001513225
376.177512085976 0.0170040984389009
388.178470360899 0.00308431660133138
389.183962902007 0.00178963799314882
397.176533450393 0.0132715888792947
399.192249483984 0.00894757253827728
400.199664996011 0.00281638626658924
401.210083007812 0.00101931392147947
402.191766445716 0.0041575976484307
413.209442529425 0.0171040317684659
414.2162608721 0.0386292884358921
415.2240859041 0.00409779507011656
425.210388183594 0.0017272657080051
426.214760478483 0.000754035864830579
427.225292825058 0.00122806093058144
443.219948266495 0.427002130715114
444.2268255561 0.579278809637519
445.233123779297 0.579278809637519
466.208160400391 0.579278809637519
END IONS

BEGIN IONS
TITLE=msLevel 2; retentionTime ; scanNum 
msLevel=2
SCANS=322
centroided=TRUE
PEPMASS=332.1558
CHARGE=1+
RT=5.88
IONMODE=Positive
ADDUCT=M+H
ID=XUIUXXQVHPEQNM
SMILES=C1=CC=C(C(=C1)CNCC2=CC=C(C=C2)C3=C4C=CNC4=NC=C3)F
FORMULA=C21H18FN3
FILENAME=2600129004_190423_MAS011_A3.mzXML
DrugBank.ID=Unknown
INCHIKEY=XUIUXXQVHPEQNM-UHFFFAOYSA-N
CPD=Pubchem_24857242
Status=Unknown
CAS=N/A
NAME=Pubchem_24857242
MSLEVEL=2
TIC=237672967.597656
PEPMASS_DEV=0.00136890837876417
SCAN_NUMBER=511
PARAM_SUBMIT_USER=
PARAM_SAMPLE_TYPE=
PARAM_COMMENTS=
PARAM_ALGORITHM=RMassBank
PARAM_CREATION_TIME=2021-06-27 02:13:05
DB=Inhouse
CLASS=Drug
NUM_PEAKS=12
PARAM_CONSENSUS=consensus
Superclass=Organoheterocyclic compounds
Class=Pyridines and derivatives
Subclass=Phenylpyridines
109.044821568531 0.0016957611730825
124.055634265062 0.000335748382552293
138.071375202116 0.000397898241422302
194.0838497401 0.000485133854367032
195.091221001034 0.00642036545569701
205.0760247081 0.000299753889051018
206.083136579734 0.000398591657153638
207.0916747721 1
209.1073248361 0.00123010282210223
222.10251973516 0.00202945167382723
223.110447737036 0.00286521847480776
303.129202683158 0.000240142789985028
END IONS

BEGIN IONS
TITLE=msLevel 2; retentionTime ; scanNum 
msLevel=2
SCANS=325
centroided=TRUE
PEPMASS=333.1211
CHARGE=1+
RT=4.73
IONMODE=Positive
ADDUCT=M+K
ID=VRYZCEONIWEUAV
SMILES=Cc1cc(C)cc(c1)C(=NOCCCCCC(=NO)O)O
FORMULA=C15H22N2O4
FILENAME=2600129004_190423_MAS011_A4.mzXML
DrugBank.ID=Unknown
INCHIKEY=VRYZCEONIWEUAV-UHFFFAOYSA-N
CPD=LMK 235
Status=Unknown
CAS=N/A
NAME=LMK 235
MSLEVEL=2
TIC=443211.136230469
PEPMASS_DEV=0.000237423203866983
SCAN_NUMBER=414
PARAM_SUBMIT_USER=
PARAM_SAMPLE_TYPE=
PARAM_COMMENTS=
PARAM_ALGORITHM=RMassBank
PARAM_CREATION_TIME=2021-06-27 02:14:00
DB=Inhouse
CLASS=Drug
NUM_PEAKS=6
PARAM_CONSENSUS=consensus
Superclass=Benzenoids
Class=Benzene and substituted derivatives
Subclass=Benzoic acids and derivatives
84.0443345992741 0.000235212226523626
84.0807954194629 0.000364404836046509
85.0648179662406 0.00013614584671763
88.0756930721725 0.000613461320455947
90.0466375576284 0.000188916141493001
97.0134422191461 0.0163005263334149
97.0647863371792 0.00157783690998894
98.0683711218935 0.000119539017554976
102.010525785647 0.0038757430960303
103.054288166847 0.000326348308479992
105.069854963028 0.00285564881488834
106.073346977274 0.000148321973143206
107.073427493458 0.000236374097934287
107.085558383913 0.000672214243265958
110.021432605917 0.0050428671747883
112.075620064688 0.000212771470732967
113.060186535592 0.000120052434483891
115.075352109136 0.0308616745056611
116.078685422339 0.00192980041086513
121.049977375692 0.00863146995058457
122.096462541839 0.000197084098461026
123.080464308109 0.0081177311776623
124.084200890118 0.00063989076440912
128.05967152391 0.0157273887981795
130.086335952588 0.0287339085034
133.064923809809 1
134.068413120742 0.0521343128242299
138.052526401578 0.00634541610706945
139.0603742601 0.0868938572394638
145.097773217396 0.000290978582792203
146.097153753362 0.000244814032168596
148.075176843094 0.000729493689052729
148.097025844768 0.000586275894466195
149.023227808338 0.00018514372899322
149.083083643772 0.000307751581536536
150.052979350767 0.00628973394730641
150.0913404241 0.000718078315916625
152.068008449581 0.0147089139836167
154.062789916992 0.0276654188147094
155.036346435547 0.0486533815259638
155.067306518555 0.0667521848047353
166.0862550441 0.00534112144818663
168.063323974609 0.0477059968998409
169.071472167969 0.00535473113914411
170.078857421875 0.497975400504743
171.065628051758 0.165396265458686
172.073440551758 0.348941158415035
176.120101928711 0.0489923538369559
187.060399532394 0.528060781427803
188.067845849706 0.0169735090847992
207.091598510742 0.0557792696769334
220.133702263153 0.000380351853243369
242.115470045898 0.0468671867476517
256.131341663816 0.00932950673233385
262.143715595712 0.0212033570635261
277.154602974027 0.000138300978851139
294.157946419693 0.000372791589040092
299.1366132001 0.37745398989166
316.1407879361 0.0241330709201117
END IONS

BEGIN IONS
TITLE=msLevel 2; retentionTime ; scanNum 
msLevel=2
SCANS=326
centroided=TRUE
PEPMASS=296.1281
CHARGE=1+
RT=5.29
IONMODE=Positive
ADDUCT=M+H
ID=FEQUIPXIENTMJN
SMILES=Cc1c(c(C)on1)c1cc(cc(c1)O)C(c1ccccc1)O
FORMULA=C18H17NO3
FILENAME=2600129004_190423_MAS011_A5.mzXML
DrugBank.ID=Unknown
INCHIKEY=FEQUIPXIENTMJN-UHFFFAOYSA-N
CPD=OXF BD 02
Status=Unknown
CAS=N/A
NAME=OXF BD 02
MSLEVEL=2
TIC=7897966.09814453
PEPMASS_DEV=0.00148209737571951
SCAN_NUMBER=456
PARAM_SUBMIT_USER=
PARAM_SAMPLE_TYPE=
PARAM_COMMENTS=
PARAM_ALGORITHM=RMassBank
PARAM_CREATION_TIME=2021-06-27 02:14:39
DB=Inhouse
CLASS=Drug
NUM_PEAKS=53
PARAM_CONSENSUS=consensus
Superclass=Benzenoids
Class=Benzene and substituted derivatives
Subclass=Diphenylmethanes
94.0651797557285 0.00512135669867491
95.0491801896878 0.00343935189713364
105.033472224812 0.00610134056818058
107.049141805552 0.376966617994243
118.065279949025 0.00175207430653447
119.049036534951 0.00229508925607182
120.080881186086 0.00612923765535317
121.064683572491 0.0103187654670942
130.064901633933 0.00166860085908168
133.052373332545 0.00493413581308492
135.08108987232 0.00153614800743873
136.075398118525 0.00165006357606006
147.067904618997 0.00623948086036913
148.075640756017 1
149.059756131153 0.018578807802106
165.069975863284 0.00551748224921177
166.0776202507 0.00384143138392248
167.085752915428 0.00643274143577999
172.075299238585 0.00321830901240394
173.059582442754 0.00501360536044219
177.069965598737 0.00431857347619929
181.065108209462 0.00331219149190515
181.101132967085 0.0084746922252169
193.065135349339 0.00413955828365164
193.088694899325 0.00413784637855955
194.07267234389 0.00504892738739455
195.080484004187 0.0181577509185943
204.081249566637 0.00310581141202627
207.103405883668 0.00167914234741189
208.112049757206 0.0291949265398094
209.096120588146 0.0183345816379211
215.085407263537 0.00143815872355932
217.08858101361 0.00285207293426629
218.096434364832 0.0365592973865293
219.080608557383 0.0123639010121509
219.103175803603 0.00998389804445472
220.07553283995 0.0209518037797243
221.083620269872 0.150240607310807
222.068220376339 0.00284814067138292
233.084023791929 0.00159683633585303
234.091431074933 0.119921311638631
235.099016329772 0.153557169068439
236.106430958242 0.626187272673357
237.091052064096 0.0142069431003445
243.079830896205 0.0018229754892173
248.107668018919 0.00340141979540155
249.115107793043 0.0100192327365496
250.12263992271 0.0212649283190087
260.107065961235 0.00519016958406254
261.090886566501 0.00456296850895068
276.102466519392 0.00820475423865168
278.117674946894 0.156136771515358
279.102940117611 0.00237536647011942
END IONS

BEGIN IONS
TITLE=msLevel 2; retentionTime ; scanNum 
msLevel=2
SCANS=327
centroided=TRUE
PEPMASS=302.0651
CHARGE=1+
RT=3.39
IONMODE=Positive
ADDUCT=M+H
ID=MHDPPLULTMGBSI
SMILES=C([C@@H]1[C@H]([C@H](C(n2c3c(c(N)ncn3)nc2Cl)O1)O)O)O
FORMULA=C10H12ClN5O4
FILENAME=2600129004_190423_MAS011_A8.mzXML
DrugBank.ID=Unknown
INCHIKEY=MHDPPLULTMGBSI-LZGMGDPASA-N
CPD=8-Chloroadenosine
Status=Unknown
CAS=N/A
NAME=8-Chloroadenosine
MSLEVEL=2
TIC=20200786.8378906
PEPMASS_DEV=0.00127949502969669
SCAN_NUMBER=296
PARAM_SUBMIT_USER=
PARAM_SAMPLE_TYPE=
PARAM_COMMENTS=
PARAM_ALGORITHM=RMassBank
PARAM_CREATION_TIME=2021-06-27 02:15:03
DB=Inhouse
CLASS=Drug
NUM_PEAKS=19
PARAM_CONSENSUS=consensus
Superclass=Nucleosides, nucleotides, and analogues
Class=Purine nucleosides
Subclass=
85.0285797119141 0.0078924825280444
85.0285797119141 0.0078924825280444
87.0442428588867 0.00231882627288526
87.0442428588867 0.00231882627288526
97.0285949707031 0.00351496565798011
97.0285949707031 0.00351496565798011
103.039283752441 0.00192335501891915
103.039283752441 0.00192335501891915
113.059906005859 0.00174705931076299
113.059906005859 0.00174705931076299
115.039115905762 0.0100507423850827
115.039115905762 0.0100507423850827
133.049713134766 0.0159326933499349
133.049713134766 0.0159326933499349
170.022811889648 1
170.022811889648 1
170.022811889648 1
171.019592285156 0.0121110183297167
171.019592285156 0.0121110183297167
END IONS

BEGIN IONS
TITLE=msLevel 2; retentionTime ; scanNum 
msLevel=2
SCANS=328
centroided=TRUE
PEPMASS=464.9573
CHARGE=1+
RT=5.15
IONMODE=Positive
ADDUCT=M+H
ID=IYCJJVVXEHZJHE
SMILES=c1cc(cnc1)CN1C(=O)/C(=C/c2cc(ccc2OCC(=O)O)Br)/SC1=S
FORMULA=C18H13BrN2O4S2
FILENAME=2600129004_190423_MAS011_A9.mzXML
DrugBank.ID=Unknown
INCHIKEY=IYCJJVVXEHZJHE-CHHVJCJISA-N
CPD=SKPin C1
Status=Unknown
CAS=N/A
NAME=SKPin C1
MSLEVEL=2
TIC=46308747.5102539
PEPMASS_DEV=0.00118718593584931
SCAN_NUMBER=448
PARAM_SUBMIT_USER=
PARAM_SAMPLE_TYPE=
PARAM_COMMENTS=
PARAM_ALGORITHM=RMassBank
PARAM_CREATION_TIME=2021-06-27 02:17:26
DB=Inhouse
CLASS=Drug
NUM_PEAKS=163
PARAM_CONSENSUS=consensus
Superclass=Benzenoids
Class=Benzene and substituted derivatives
Subclass=Phenoxyacetic acid derivatives
92.0496516538946 0.324256196026801
93.0578142655612 0.0439430724926432
94.0653665261742 0.00111517038201833
94.0653665261742 0.00111517038201833
107.060541544449 0.0608362287259128
107.060541544449 0.0608362287259128
108.045091199727 0.00121357386971548
110.060569560973 0.00482466973021064
110.060569560973 0.00482466973021064
111.014166788442 0.00137497208364931
113.017064288595 0.00119117574228736
118.053040314828 0.00116110959355933
118.053040314828 0.00116110959355933
119.060951156685 0.0041190835543245
119.060951156685 0.0041190835543245
124.02171667433 0.109694154169266
124.02171667433 0.109694154169266
125.029558851694 0.0165732272712513
125.029558851694 0.0165732272712513
135.055505693489 0.00532640802445857
135.055505693489 0.00532640802445857
148.052351547774 0.00587519574598556
149.017484410157 0.00191528241851569
149.017484410157 0.00191528241851569
149.017484410157 0.00191528241851569
150.024762012796 0.504965531357046
150.024762012796 0.504965531357046
151.032604190159 0.689985249411319
151.032604190159 0.689985249411319
152.036158651371 0.0271521559328185
166.985990548394 0.00728673030879056
166.998426451112 0.00117706496665439
183.0045166441 0.00907523909481582
195.005284816311 0.00376667580213872
197.963549561988 0.00179231394800889
197.963549561988 0.00179231394800889
198.966447895817 0.00120159789539033
198.966447895817 0.00120159789539033
208.019159464992 0.0135839632685373
208.019159464992 0.0135839632685373
208.959710438689 0.00194597419407487
208.959710438689 0.00194597419407487
208.959710438689 0.00194597419407487
209.038796676468 0.00383863467904077
209.038796676468 0.00383863467904077
212.956655348717 0.00142749794941848
222.939587700006 0.00153458832004358
222.939587700006 0.00153458832004358
222.999707278792 0.0057672756327672
222.999707278792 0.0057672756327672
223.947063666737 0.00188692303473287
223.947063666737 0.00188692303473287
223.947063666737 0.00188692303473287
224.008205583538 0.00351269855465507
224.955409383719 0.00615403275927797
224.955409383719 0.00615403275927797
225.015239045755 0.00120038476317996
225.015239045755 0.00120038476317996
225.944712147828 0.00137973989815318
225.944712147828 0.00137973989815318
226.953469851772 0.00350367601978405
228.932716248595 0.00467533804336014
229.922797210297 0.00273219971897626
230.930883528082 0.00404335717897541
236.013902361776 0.0121317681132552
236.013902361776 0.0121317681132552
236.025590584454 0.00111337283535727
236.025590584454 0.00111337283535727
236.955582484922 0.00455090367137616
236.955582484922 0.00455090367137616
237.016114050669 0.00248962547925053
238.953627694198 0.00318209947837801
240.931577095033 0.0101719884585992
240.931577095033 0.0101719884585992
242.929439198993 0.00799960329145735
250.994587504562 0.00805862216776799
250.994587504562 0.00805862216776799
250.994587504562 0.00805862216776799
251.997592649825 0.00122553290117311
255.918747217764 0.0174271038345083
255.918747217764 0.0174271038345083
256.926726724115 0.0166194309289002
256.926726724115 0.0166194309289002
257.916990791132 0.0122568669203952
257.92959454039 0.00112257315585844
258.924771933391 0.0116558118263076
264.956871396756 0.000935679017231918
267.943450927734 0.00114274695953007
267.943450927734 0.00114274695953007
267.943450927734 0.00114274695953007
268.927032470703 0.0491675751218538
268.927032470703 0.0491675751218538
269.930480957031 0.00527623378290997
269.930480957031 0.00527623378290997
269.930480957031 0.00527623378290997
270.924713134766 0.040243409623836
281.005279541016 0.0123728742764058
281.005279541016 0.0123728742764058
282.962341308594 0.00182840454540832
282.962341308594 0.00182840454540832
282.962341308594 0.00182840454540832
284.958709716797 0.00141790164662839
284.958709716797 0.00141790164662839
284.958709716797 0.00141790164662839
286.938171386719 0.00539711015271425
286.994476318359 0.00924998966210332
286.994476318359 0.00924998966210332
287.999664306641 0.00175112629497725
287.999664306641 0.00175112629497725
288.936157226562 0.00458901138584143
288.936157226562 0.00458901138584143
288.936157226562 0.00458901138584143
298.923309326172 0.00128222041601689
298.923309326172 0.00128222041601689
312.998504638672 0.00140244093657769
312.998504638672 0.00140244093657769
314.932373046875 0.0160806660583011
314.932373046875 0.0160806660583011
316.930450439453 0.0110059118188989
316.930450439453 0.0110059118188989
328.992736816406 0.00370353774840112
328.992736816406 0.00370353774840112
330.000244140625 0.0568300812894239
330.000244140625 0.0568300812894239
331.007720947266 0.00551055455657559
331.007720947266 0.00551055455657559
331.998138427734 0.0434197338739655
341.943450927734 0.0152120803385426
341.943450927734 0.0152120803385426
342.050689697266 0.00426002623217471
343.008941650391 0.00145431759287578
343.008941650391 0.00145431759287578
343.940582275391 0.0108283121023756
344.969329833984 0.00201844456240995
347.969635009766 0.0138776839040751
348.974945068359 0.00130031688675568
348.974945068359 0.00130031688675568
348.974945068359 0.00130031688675568
349.967407226562 0.0124311165283025
349.967407226562 0.0124311165283025
355.962097167969 0.00217218093690094
357.959533691406 0.0015163813772294
372.964782714844 0.012331103239233
374.961700439453 0.011045499515738
377.954710251091 0.00137389025866223
379.951017131785 0.00147909733797915
379.978666050747 0.00518307823394905
385.916530797218 0.00291863262237813
385.916530797218 0.00291863262237813
386.040187993282 0.0013932309998544
387.915065460565 0.00258606336535742
388.941707053066 0.0294294641572887
389.943812518805 0.00525837325304932
390.93957032986 0.025785793344405
390.97323121023 0.00199371530247264
392.972620365554 0.00241875071691225
405.9439831121 1
406.9518081441 0.349116002132112
418.9518081441 0.0304693770692645
430.97128665869 0.00232188742745595
431.977938715258 0.00133467919718898
432.96737078132 0.00147378437526486
446.9467227641 0.00862963160483896
END IONS

BEGIN IONS
TITLE=msLevel 2; retentionTime ; scanNum 
msLevel=2
SCANS=330
centroided=TRUE
PEPMASS=371.1941
CHARGE=1+
RT=4.98
IONMODE=Positive
ADDUCT=M+Na
ID=SJYFDORQYYEJLB
SMILES=CC(C)OC(=O)c1cc2c(cccc2OCC(CNC(C)(C)C)O)[nH]1
FORMULA=C19H28N2O4
FILENAME=2600129004_190423_MAS011_B1.mzXML
DrugBank.ID=Unknown
INCHIKEY=SJYFDORQYYEJLB-UHFFFAOYSA-N
CPD=SDZ-21009
Status=experimental
CAS=N/A
NAME=SDZ-21009
MSLEVEL=2
TIC=2934598.77856445
PEPMASS_DEV=-0.000866148603909788
SCAN_NUMBER=433
PARAM_SUBMIT_USER=
PARAM_SAMPLE_TYPE=
PARAM_COMMENTS=
PARAM_ALGORITHM=RMassBank
PARAM_CREATION_TIME=2021-06-27 02:18:16
DB=Inhouse
CLASS=Drug
NUM_PEAKS=13
PARAM_CONSENSUS=consensus
Superclass=Organoheterocyclic compounds
Class=Indoles and derivatives
Subclass=Indolecarboxylic acids and derivatives
86.0965352447061 0.000522148824016597
90.0549069563661 0.000586675756731851
98.0963132336618 0.000466048743263869
101.059745788574 0.1212739484122
111.042175292969 0.428443269863582
115.098617985643 0.000252734532162857
115.156982421875 0.0211208169788903
116.107076193761 0.00421548680864393
118.065139165095 0.00138397277801592
129.054779052734 0.979094063748596
130.064930080482 0.000751083276885158
130.122653986785 0.00930869188823467
133.052548221217 0.000367015553430834
134.060052678845 0.0178984106423662
144.080716575224 0.00132308040666782
146.060048871875 0.00514094840623537
147.065322875977 0.594618339249655
152.104583740234 0.164510120899912
160.039314979072 0.0056281304760543
160.075707050865 0.00303538274161695
160.112709733282 0.000291513786053382
162.054924524138 0.00938078220605547
170.060876383719 0.000661300062450996
171.067783192627 0.000961348850557676
172.075701680245 0.0502048898360945
173.071511921953 0.000501384656789412
174.054743268365 0.000598669425315299
176.034302372793 0.00046667473196562
176.106977895908 0.00850938116365728
178.049741631959 0.0341746330855373
179.045550796598 0.00030035153405216
186.054876997357 0.00395930367258462
187.086556141146 0.000527076913723937
188.070270035113 0.000761154951470686
188.094409379099 0.000675052803252334
188.106982592508 0.00178474908673642
189.102391875223 0.00347670768677516
198.054851195374 0.00553454513418047
202.122654288268 0.000849379665197984
204.065528540155 0.0357627661122618
207.112844608936 0.00665004523516101
214.122746317425 0.00578837763900835
215.081538097524 0.0267931159963641
216.065415725622 0.198060349269025
218.118254727825 0.000369761382989947
220.096783038862 0.081600624018531
232.097051911266 0.0105964187021036
233.092038460873 0.0710675133391015
234.076832926647 0.00294384410847498
235.098005265824 0.00100730146187168
246.113030974206 0.00310667225956723
249.159687964521 0.00226518145149145
251.102675342795 0.341386201270548
258.11270931245 0.0614326816468737
260.118509594869 0.000652104115654584
273.084686279297 0.146778932259056
275.138979184799 0.00101927079436256
276.123258481059 0.00477290791937916
293.149483569891 1
295.155440752245 0.0184282612514041
298.105133056641 0.300357505421726
307.165687217403 0.00660706063635813
329.147125244141 1
END IONS
